Date:  10:33; onsdag; februar 07; 2024
Model name: Exercise2
Study name: Static 1(-Default-)
Plot type: Static nodal stress Stress1
Result Type: von Mises 


Node  ,Value (N/mm^2 (MPa))  ,X (mm)  ,Y (mm)  ,Z (mm)
1  ,3.4       ,3.75  ,45.77  ,0
2  ,3.2       ,3.6875  ,45.77  ,0
3  ,3.0       ,3.625  ,45.77  ,0
4  ,2.8       ,3.5625  ,45.77  ,0
5  ,2.6       ,3.5  ,45.77  ,0
6  ,2.5       ,3.4375  ,45.77  ,0
7  ,2.3       ,3.375  ,45.77  ,0
8  ,2.2       ,3.3125  ,45.77  ,0
9  ,2.1       ,3.25  ,45.77  ,0
10  ,2.0       ,3.1875  ,45.77  ,0
11  ,1.9       ,3.125  ,45.77  ,0
12  ,1.9       ,3.0625  ,45.77  ,0
13  ,1.8       ,3  ,45.77  ,0
14  ,1.7       ,2.9375  ,45.77  ,0
15  ,1.7       ,2.875  ,45.77  ,0
16  ,1.6       ,2.8125  ,45.77  ,0
17  ,1.6       ,2.75  ,45.77  ,0
18  ,1.5       ,2.6875  ,45.77  ,0
19  ,1.5       ,2.625  ,45.77  ,0
20  ,1.4       ,2.5625  ,45.77  ,0
21  ,1.4       ,2.5  ,45.77  ,0
22  ,1.4       ,2.4375  ,45.77  ,0
23  ,1.3       ,2.375  ,45.77  ,0
24  ,1.3       ,2.3125  ,45.77  ,0
25  ,1.3       ,2.25  ,45.77  ,0
26  ,1.3       ,2.1875  ,45.77  ,0
27  ,1.3       ,2.125  ,45.77  ,0
28  ,1.2       ,2.0625  ,45.77  ,0
29  ,1.2       ,2  ,45.77  ,0
30  ,1.2       ,1.9375  ,45.77  ,0
31  ,1.2       ,1.875  ,45.77  ,0
32  ,1.2       ,1.8125  ,45.77  ,0
33  ,1.2       ,1.75  ,45.77  ,0
34  ,1.2       ,1.6875  ,45.77  ,0
35  ,1.1       ,1.625  ,45.77  ,0
36  ,1.1       ,1.5625  ,45.77  ,0
37  ,1.1       ,1.5  ,45.77  ,0
38  ,1.1       ,1.4375  ,45.77  ,0
39  ,1.1       ,1.375  ,45.77  ,0
40  ,1.1       ,1.3125  ,45.77  ,0
41  ,1.1       ,1.25  ,45.77  ,0
42  ,1.1       ,1.1875  ,45.77  ,0
43  ,1.1       ,1.125  ,45.77  ,0
44  ,1.1       ,1.0625  ,45.77  ,0
45  ,1.1       ,1  ,45.77  ,0
46  ,1.1       ,0.9375  ,45.77  ,0
47  ,1.1       ,0.875  ,45.77  ,0
48  ,1.1       ,0.8125  ,45.77  ,0
49  ,1.0       ,0.75  ,45.77  ,0
50  ,1.0       ,0.6875  ,45.77  ,0
51  ,1.0       ,0.625  ,45.77  ,0
52  ,1.0       ,0.5625  ,45.77  ,0
53  ,1.0       ,0.5  ,45.77  ,0
54  ,1.0       ,0.4375  ,45.77  ,0
55  ,1.0       ,0.375  ,45.77  ,0
56  ,1.0       ,0.3125  ,45.77  ,0
57  ,1.0       ,0.25  ,45.77  ,0
58  ,1.0       ,0.1875  ,45.77  ,0
59  ,1.0       ,0.125  ,45.77  ,0
60  ,1.0       ,0.0625  ,45.77  ,0
61  ,1.0       ,0  ,45.77  ,0
62  ,1.0       ,0  ,45.833  ,0
63  ,1.0       ,0  ,45.922  ,0
64  ,1.0       ,0  ,46.045  ,0
65  ,1.0       ,0  ,46.218  ,0
66  ,1.1       ,0  ,46.46  ,0
67  ,1.1       ,0  ,46.799  ,0
68  ,1.2       ,0  ,47.274  ,0
69  ,1.3       ,0  ,47.777  ,0
70  ,1.4       ,0  ,48.28  ,0
71  ,1.5       ,0  ,48.783  ,0
72  ,1.5       ,0  ,49.286  ,0
73  ,1.5       ,0  ,49.789  ,0
74  ,1.5       ,0  ,50.292  ,0
75  ,1.4       ,0  ,50.795  ,0
76  ,1.3       ,0  ,51.298  ,0
77  ,1.3       ,0  ,51.801  ,0
78  ,1.2       ,0  ,52.304  ,0
79  ,1.2       ,0  ,52.807  ,0
80  ,1.1       ,0  ,53.31  ,0
81  ,1.1       ,0  ,53.813  ,0
82  ,1.0       ,0  ,54.316  ,0
83  ,1.0       ,0  ,54.819  ,0
84  ,1.0       ,0  ,55.322  ,0
85  ,0.9       ,0  ,55.825  ,0
86  ,0.9       ,0  ,56.328  ,0
87  ,0.9       ,0  ,56.831  ,0
88  ,0.9       ,0  ,57.334  ,0
89  ,0.9       ,0  ,57.837  ,0
90  ,0.9       ,0  ,58.34  ,0
91  ,0.9       ,0  ,58.843  ,0
92  ,0.8       ,0  ,59.346  ,0
93  ,0.8       ,0  ,59.849  ,0
94  ,0.8       ,0  ,60.352  ,0
95  ,0.8       ,0  ,60.856  ,0
96  ,0.8       ,0  ,61.359  ,0
97  ,0.8       ,0  ,61.862  ,0
98  ,0.8       ,0  ,62.365  ,0
99  ,0.8       ,0  ,62.868  ,0
100  ,0.7       ,0  ,63.371  ,0
101  ,0.7       ,0  ,63.874  ,0
102  ,0.7       ,0  ,64.377  ,0
103  ,0.7       ,0  ,64.88  ,0
104  ,0.7       ,0  ,65.383  ,0
105  ,0.7       ,0  ,65.886  ,0
106  ,0.7       ,0  ,66.389  ,0
107  ,0.7       ,0  ,66.892  ,0
108  ,0.7       ,0  ,67.395  ,0
109  ,0.7       ,0  ,67.898  ,0
110  ,0.7       ,0  ,68.401  ,0
111  ,0.7       ,0  ,68.904  ,0
112  ,0.7       ,0  ,69.407  ,0
113  ,0.6       ,0  ,69.91  ,0
114  ,0.6       ,0  ,70.413  ,0
115  ,0.6       ,0  ,70.916  ,0
116  ,0.6       ,0  ,71.419  ,0
117  ,0.6       ,0  ,71.922  ,0
118  ,0.6       ,0  ,72.425  ,0
119  ,0.6       ,0  ,72.928  ,0
120  ,0.6       ,0  ,73.431  ,0
121  ,0.6       ,0  ,73.934  ,0
122  ,0.6       ,0  ,74.437  ,0
123  ,0.6       ,0  ,74.941  ,0
124  ,0.6       ,0  ,75.444  ,0
125  ,0.6       ,0  ,75.947  ,0
126  ,0.5       ,0  ,76.45  ,0
127  ,0.5       ,0  ,76.953  ,0
128  ,0.5       ,0  ,77.456  ,0
129  ,0.5       ,0  ,77.959  ,0
130  ,0.5       ,0  ,78.462  ,0
131  ,0.5       ,0  ,78.965  ,0
132  ,0.5       ,0  ,79.468  ,0
133  ,0.5       ,0  ,79.971  ,0
134  ,0.5       ,0  ,80.474  ,0
135  ,0.5       ,0  ,80.977  ,0
136  ,0.5       ,0  ,81.48  ,0
137  ,0.5       ,0  ,81.983  ,0
138  ,0.5       ,0  ,82.486  ,0
139  ,0.5       ,0  ,82.989  ,0
140  ,0.5       ,0  ,83.492  ,0
141  ,0.5       ,0  ,83.995  ,0
142  ,0.5       ,0  ,84.498  ,0
143  ,0.5       ,0  ,85.001  ,0
144  ,0.5       ,0  ,85.504  ,0
145  ,0.5       ,0  ,86.007  ,0
146  ,0.5       ,0  ,86.51  ,0
147  ,0.5       ,0  ,87.013  ,0
148  ,0.5       ,0  ,87.516  ,0
149  ,0.5       ,0  ,88.019  ,0
150  ,0.5       ,0  ,88.522  ,0
151  ,0.5       ,0  ,89.025  ,0
152  ,0.5       ,0  ,89.529  ,0
153  ,0.5       ,0  ,90.032  ,0
154  ,0.5       ,0  ,90.535  ,0
155  ,0.5       ,0  ,91.038  ,0
156  ,0.5       ,0  ,91.541  ,0
157  ,0.5       ,0.5  ,91.541  ,0
158  ,0.5       ,1  ,91.541  ,0
159  ,0.5       ,1.5  ,91.541  ,0
160  ,0.5       ,2  ,91.541  ,0
161  ,0.5       ,2.5  ,91.541  ,0
162  ,0.5       ,3  ,91.541  ,0
163  ,0.5       ,3.5  ,91.541  ,0
164  ,0.5       ,4  ,91.541  ,0
165  ,0.5       ,4.5  ,91.541  ,0
166  ,0.5       ,5  ,91.541  ,0
167  ,0.5       ,5.5  ,91.541  ,0
168  ,0.5       ,6  ,91.541  ,0
169  ,0.5       ,6.5  ,91.541  ,0
170  ,0.5       ,7  ,91.541  ,0
171  ,0.5       ,7.5  ,91.541  ,0
172  ,0.5       ,8  ,91.541  ,0
173  ,0.5       ,8  ,91.041  ,0
174  ,0.5       ,8  ,90.541  ,0
175  ,0.5       ,8  ,90.041  ,0
176  ,0.5       ,8  ,89.541  ,0
177  ,0.5       ,8  ,89.041  ,0
178  ,0.5       ,8  ,88.541  ,0
179  ,0.5       ,8  ,88.041  ,0
180  ,0.5       ,8  ,87.541  ,0
181  ,0.5       ,8  ,87.041  ,0
182  ,0.5       ,8  ,86.541  ,0
183  ,0.5       ,8  ,86.041  ,0
184  ,0.5       ,8  ,85.541  ,0
185  ,0.5       ,8  ,85.041  ,0
186  ,0.5       ,8  ,84.541  ,0
187  ,0.5       ,8  ,84.041  ,0
188  ,0.5       ,8  ,83.541  ,0
189  ,0.5       ,8  ,83.041  ,0
190  ,0.5       ,8  ,82.541  ,0
191  ,0.5       ,8  ,82.041  ,0
192  ,0.5       ,8  ,81.541  ,0
193  ,0.5       ,8  ,81.041  ,0
194  ,0.5       ,8  ,80.541  ,0
195  ,0.5       ,8  ,80.041  ,0
196  ,0.5       ,8  ,79.541  ,0
197  ,0.5       ,8  ,79.041  ,0
198  ,0.5       ,8  ,78.541  ,0
199  ,0.5       ,8  ,78.041  ,0
200  ,0.5       ,8  ,77.541  ,0
201  ,0.5       ,8  ,77.041  ,0
202  ,0.5       ,8  ,76.541  ,0
203  ,0.5       ,8  ,76.041  ,0
204  ,0.5       ,8  ,75.541  ,0
205  ,0.5       ,8  ,75.041  ,0
206  ,0.5       ,8  ,74.541  ,0
207  ,0.5       ,8  ,74.041  ,0
208  ,0.4       ,8  ,73.541  ,0
209  ,0.4       ,8  ,73.041  ,0
210  ,0.4       ,8  ,72.541  ,0
211  ,0.4       ,8  ,72.041  ,0
212  ,0.3       ,8  ,71.541  ,0
213  ,0.4       ,7.8238  ,71.071  ,0
214  ,0.5       ,7.6556  ,70.599  ,0
215  ,0.5       ,7.4955  ,70.124  ,0
216  ,0.6       ,7.3434  ,69.648  ,0
217  ,0.6       ,7.1993  ,69.169  ,0
218  ,0.6       ,7.0634  ,68.688  ,0
219  ,0.7       ,6.9354  ,68.204  ,0
220  ,0.7       ,6.8156  ,67.719  ,0
221  ,0.7       ,6.7037  ,67.23  ,0
222  ,0.8       ,6.6  ,66.74  ,0
223  ,0.8       ,6.5042  ,66.248  ,0
224  ,0.8       ,6.4167  ,65.754  ,0
225  ,0.8       ,6.3375  ,65.259  ,0
226  ,0.9       ,6.2667  ,64.763  ,0
227  ,0.9       ,6.2042  ,64.267  ,0
228  ,0.9       ,6.15  ,63.77  ,0
229  ,0.9       ,6.1042  ,63.272  ,0
230  ,0.9       ,6.0667  ,62.773  ,0
231  ,0.9       ,6.0375  ,62.273  ,0
232  ,0.9       ,6.0167  ,61.773  ,0
233  ,0.9       ,6.0042  ,61.272  ,0
234  ,0.9       ,6  ,60.77  ,0
235  ,0.9       ,6  ,60.281  ,0
236  ,0.9       ,6  ,59.792  ,0
237  ,0.9       ,6  ,59.303  ,0
238  ,0.9       ,6  ,58.814  ,0
239  ,0.9       ,6  ,58.325  ,0
240  ,0.9       ,6  ,57.836  ,0
241  ,0.9       ,6  ,57.347  ,0
242  ,0.9       ,6  ,56.858  ,0
243  ,0.9       ,6  ,56.369  ,0
244  ,0.9       ,6  ,55.88  ,0
245  ,0.9       ,6  ,55.391  ,0
246  ,0.9       ,6  ,54.902  ,0
247  ,0.9       ,6  ,54.413  ,0
248  ,0.9       ,6  ,53.924  ,0
249  ,0.8       ,6  ,53.435  ,0
250  ,0.8       ,6  ,52.947  ,0
251  ,0.8       ,6  ,52.458  ,0
252  ,0.8       ,6  ,51.969  ,0
253  ,0.7       ,6  ,51.48  ,0
254  ,0.7       ,6  ,50.991  ,0
255  ,0.6       ,6  ,50.502  ,0
256  ,0.5       ,6  ,50.013  ,0
257  ,0.4       ,6  ,49.524  ,0
258  ,0.3       ,6  ,49.049  ,0
259  ,0.2       ,6  ,48.71  ,0
260  ,0.2       ,6  ,48.468  ,0
261  ,0.2       ,6  ,48.295  ,0
262  ,0.2       ,6  ,48.172  ,0
263  ,0.2       ,6  ,48.083  ,0
264  ,0.2       ,6  ,48.02  ,0
265  ,0.2       ,5.9399  ,48.02  ,0
266  ,0.2       ,5.8802  ,48.017  ,0
267  ,0.2       ,5.8207  ,48.013  ,0
268  ,0.2       ,5.7615  ,48.008  ,0
269  ,0.2       ,5.7027  ,48.001  ,0
270  ,0.2       ,5.6441  ,47.992  ,0
271  ,0.2       ,5.5858  ,47.982  ,0
272  ,0.2       ,5.5278  ,47.971  ,0
273  ,0.2       ,5.47  ,47.957  ,0
274  ,0.2       ,5.4126  ,47.943  ,0
275  ,0.2       ,5.3555  ,47.926  ,0
276  ,0.2       ,5.2986  ,47.908  ,0
277  ,0.3       ,5.2421  ,47.889  ,0
278  ,0.3       ,5.1858  ,47.868  ,0
279  ,0.3       ,5.1265  ,47.844  ,0
280  ,0.4       ,5.067  ,47.818  ,0
281  ,0.4       ,5.0086  ,47.79  ,0
282  ,0.5       ,4.9511  ,47.761  ,0
283  ,0.6       ,4.8947  ,47.731  ,0
284  ,0.7       ,4.8392  ,47.698  ,0
285  ,0.8       ,4.7848  ,47.665  ,0
286  ,0.8       ,4.7314  ,47.629  ,0
287  ,0.9       ,4.679  ,47.592  ,0
288  ,1.0       ,4.6277  ,47.554  ,0
289  ,1.1       ,4.5773  ,47.514  ,0
290  ,1.2       ,4.5279  ,47.472  ,0
291  ,1.3       ,4.4796  ,47.429  ,0
292  ,1.4       ,4.4323  ,47.384  ,0
293  ,1.5       ,4.3861  ,47.338  ,0
294  ,1.7       ,4.3414  ,47.291  ,0
295  ,1.8       ,4.2983  ,47.243  ,0
296  ,1.9       ,4.2568  ,47.193  ,0
297  ,2.0       ,4.2168  ,47.143  ,0
298  ,2.1       ,4.1783  ,47.092  ,0
299  ,2.2       ,4.1414  ,47.039  ,0
300  ,2.3       ,4.1061  ,46.986  ,0
301  ,2.4       ,4.0723  ,46.932  ,0
302  ,2.5       ,4.04  ,46.876  ,0
303  ,2.6       ,4.0093  ,46.82  ,0
304  ,2.7       ,3.9802  ,46.762  ,0
305  ,2.8       ,3.9526  ,46.703  ,0
306  ,2.8       ,3.9265  ,46.644  ,0
307  ,2.9       ,3.9025  ,46.585  ,0
308  ,3.0       ,3.8815  ,46.528  ,0
309  ,3.1       ,3.862  ,46.472  ,0
310  ,3.1       ,3.8441  ,46.415  ,0
311  ,3.2       ,3.8278  ,46.358  ,0
312  ,3.2       ,3.813  ,46.301  ,0
313  ,3.3       ,3.7998  ,46.243  ,0
314  ,3.3       ,3.7881  ,46.185  ,0
315  ,3.3       ,3.778  ,46.127  ,0
316  ,3.4       ,3.7694  ,46.068  ,0
317  ,3.4       ,3.7624  ,46.009  ,0
318  ,3.4       ,3.757  ,45.95  ,0
319  ,3.4       ,3.7531  ,45.89  ,0
320  ,3.4       ,3.7508  ,45.83  ,0
321  ,2.3       ,3.7087  ,46.735  ,0
322  ,1.8       ,3.7156  ,47.179  ,0
323  ,1.5       ,3.8103  ,47.634  ,0
324  ,3.1       ,3.6563  ,45.858  ,0
325  ,3.0       ,3.6563  ,45.98  ,0
326  ,2.9       ,3.6524  ,46.143  ,0
327  ,2.7       ,3.6629  ,46.373  ,0
328  ,2.9       ,3.5938  ,45.858  ,0
329  ,2.7       ,3.5313  ,45.858  ,0
330  ,2.8       ,3.5613  ,45.95  ,0
331  ,2.5       ,3.515  ,46.139  ,0
332  ,2.5       ,3.4687  ,45.858  ,0
333  ,2.3       ,3.494  ,46.407  ,0
334  ,2.0       ,3.4813  ,46.714  ,0
335  ,2.4       ,3.4063  ,45.858  ,0
336  ,2.5       ,3.4431  ,45.977  ,0
337  ,2.3       ,3.3952  ,46.1  ,0
338  ,1.7       ,3.4575  ,47.223  ,0
339  ,2.3       ,3.3438  ,45.858  ,0
340  ,1.6       ,3.3303  ,47.697  ,0
341  ,2.2       ,3.2813  ,45.858  ,0
342  ,2.2       ,3.3048  ,45.969  ,0
343  ,2.1       ,3.2902  ,46.135  ,0
344  ,2.0       ,3.2927  ,46.317  ,0
345  ,2.1       ,3.2188  ,45.858  ,0
346  ,1.8       ,3.229  ,46.742  ,0
347  ,2.0       ,3.1563  ,45.858  ,0
348  ,2.0       ,3.179  ,45.975  ,0
349  ,1.9       ,3.1527  ,46.159  ,0
350  ,1.9       ,3.0938  ,45.858  ,0
351  ,1.8       ,3.1083  ,46.358  ,0
352  ,1.6       ,3.1794  ,47.204  ,0
353  ,1.8       ,3.0313  ,45.858  ,0
354  ,1.8       ,3.0495  ,45.979  ,0
355  ,1.8       ,3.0056  ,46.158  ,0
356  ,1.8       ,2.9688  ,45.858  ,0
357  ,1.7       ,3.011  ,46.579  ,0
358  ,1.5       ,2.9988  ,47.657  ,0
359  ,1.7       ,2.9063  ,45.858  ,0
360  ,1.7       ,2.9196  ,45.978  ,0
361  ,1.7       ,2.8838  ,46.132  ,0
362  ,1.7       ,2.9253  ,46.31  ,0
363  ,1.6       ,2.8438  ,45.858  ,0
364  ,1.6       ,2.7813  ,45.858  ,0
365  ,1.6       ,2.7819  ,46.003  ,0
366  ,1.6       ,2.8033  ,46.203  ,0
367  ,1.5       ,2.7803  ,47.165  ,0
368  ,1.5       ,2.7188  ,45.858  ,0
369  ,1.6       ,2.7835  ,46.398  ,0
370  ,1.5       ,2.7753  ,46.705  ,0
371  ,1.5       ,2.6563  ,45.858  ,0
372  ,1.5       ,2.6423  ,45.981  ,0
373  ,1.5       ,2.6848  ,46.185  ,0
374  ,1.5       ,2.5938  ,45.858  ,0
375  ,1.5       ,2.5656  ,47.656  ,0
376  ,1.4       ,2.5313  ,45.858  ,0
377  ,1.4       ,2.5169  ,45.978  ,0
378  ,1.4       ,2.5659  ,46.141  ,0
379  ,1.5       ,2.5822  ,46.398  ,0
380  ,1.4       ,2.4688  ,45.858  ,0
381  ,1.4       ,2.5187  ,46.77  ,0
382  ,1.4       ,2.4028  ,47.194  ,0
383  ,1.4       ,2.4063  ,45.858  ,0
384  ,1.4       ,2.3901  ,45.982  ,0
385  ,1.4       ,2.4479  ,46.182  ,0
386  ,1.3       ,2.3438  ,45.858  ,0
387  ,1.4       ,2.3724  ,46.437  ,0
388  ,1.3       ,2.2813  ,45.858  ,0
389  ,1.3       ,2.2603  ,45.983  ,0
390  ,1.3       ,2.3005  ,46.186  ,0
391  ,1.3       ,2.2188  ,45.858  ,0
392  ,1.3       ,2.2222  ,46.731  ,0
393  ,1.4       ,2.2016  ,47.603  ,0
394  ,1.3       ,2.1563  ,45.858  ,0
395  ,1.3       ,2.1346  ,45.977  ,0
396  ,1.3       ,2.1581  ,46.174  ,0
397  ,1.3       ,2.2111  ,46.382  ,0
398  ,1.4       ,2.0762  ,47.17  ,0
399  ,1.2       ,2.0938  ,45.858  ,0
400  ,1.2       ,2.0312  ,45.858  ,0
401  ,1.2       ,2.0123  ,45.976  ,0
402  ,1.2       ,2.0487  ,46.137  ,0
403  ,1.2       ,1.9687  ,45.858  ,0
404  ,1.3       ,2.0409  ,46.392  ,0
405  ,1.3       ,1.9474  ,46.763  ,0
406  ,1.2       ,1.9062  ,45.858  ,0
407  ,1.2       ,1.8894  ,45.976  ,0
408  ,1.2       ,1.9308  ,46.168  ,0
409  ,1.2       ,1.8437  ,45.858  ,0
410  ,1.3       ,1.8256  ,47.096  ,0
411  ,1.4       ,1.813  ,47.516  ,0
412  ,1.2       ,1.7812  ,45.858  ,0
413  ,1.2       ,1.7662  ,45.977  ,0
414  ,1.2       ,1.8128  ,46.138  ,0
415  ,1.2       ,1.814  ,46.402  ,0
416  ,1.2       ,1.7187  ,45.858  ,0
417  ,1.2       ,1.7029  ,46.771  ,0
418  ,1.1       ,1.6562  ,45.858  ,0
419  ,1.1       ,1.6397  ,45.982  ,0
420  ,1.2       ,1.6926  ,46.182  ,0
421  ,1.1       ,1.5937  ,45.858  ,0
422  ,1.2       ,1.5993  ,46.445  ,0
423  ,1.1       ,1.5312  ,45.858  ,0
424  ,1.1       ,1.5133  ,45.978  ,0
425  ,1.1       ,1.543  ,46.185  ,0
426  ,1.3       ,1.5811  ,47.147  ,0
427  ,1.1       ,1.4687  ,45.858  ,0
428  ,1.2       ,1.4605  ,46.765  ,0
429  ,1.3       ,1.4641  ,47.492  ,0
430  ,1.1       ,1.4063  ,45.858  ,0
431  ,1.1       ,1.3895  ,45.978  ,0
432  ,1.1       ,1.4274  ,46.142  ,0
433  ,1.1       ,1.3953  ,46.403  ,0
434  ,1.1       ,1.3437  ,45.858  ,0
435  ,1.1       ,1.2812  ,45.858  ,0
436  ,1.1       ,1.2624  ,45.982  ,0
437  ,1.1       ,1.3034  ,46.181  ,0
438  ,1.1       ,1.2187  ,45.858  ,0
439  ,1.1       ,1.1938  ,46.424  ,0
440  ,1.2       ,1.2592  ,46.689  ,0
441  ,1.2       ,1.2568  ,47.097  ,0
442  ,1.1       ,1.1562  ,45.858  ,0
443  ,1.1       ,1.1332  ,45.982  ,0
444  ,1.1       ,1.1592  ,46.184  ,0
445  ,1.1       ,1.0937  ,45.858  ,0
446  ,1.3       ,1.158  ,47.583  ,0
447  ,1.1       ,1.0312  ,45.858  ,0
448  ,1.1       ,1.0083  ,45.977  ,0
449  ,1.1       ,1.0216  ,46.173  ,0
450  ,1.1       ,1.0512  ,46.376  ,0
451  ,1.1       ,0.96875  ,45.858  ,0
452  ,1.2       ,1.0348  ,46.705  ,0
453  ,1.1       ,0.90625  ,45.858  ,0
454  ,1.1       ,0.88599  ,45.976  ,0
455  ,1.1       ,0.91553  ,46.136  ,0
456  ,1.2       ,0.90914  ,47.173  ,0
457  ,1.1       ,0.84375  ,45.858  ,0
458  ,1.1       ,0.88301  ,46.387  ,0
459  ,1.1       ,0.78125  ,45.858  ,0
460  ,1.1       ,0.76302  ,45.976  ,0
461  ,1.1       ,0.79422  ,46.167  ,0
462  ,1.0       ,0.71875  ,45.858  ,0
463  ,1.1       ,0.73893  ,46.766  ,0
464  ,1.3       ,0.74909  ,47.631  ,0
465  ,1.0       ,0.65625  ,45.858  ,0
466  ,1.0       ,0.64003  ,45.976  ,0
467  ,1.1       ,0.67918  ,46.136  ,0
468  ,1.1       ,0.64872  ,46.389  ,0
469  ,1.0       ,0.59375  ,45.858  ,0
470  ,1.2       ,0.52976  ,47.214  ,0
471  ,1.0       ,0.53125  ,45.858  ,0
472  ,1.0       ,0.51397  ,45.98  ,0
473  ,1.1       ,0.55963  ,46.17  ,0
474  ,1.0       ,0.46875  ,45.858  ,0
475  ,1.1       ,0.46603  ,46.371  ,0
476  ,1.1       ,0.4146  ,46.733  ,0
477  ,1.0       ,0.40625  ,45.858  ,0
478  ,1.0       ,0.38802  ,45.976  ,0
479  ,1.1       ,0.41731  ,46.17  ,0
480  ,1.0       ,0.34375  ,45.858  ,0
481  ,1.3       ,0.34375  ,47.703  ,0
482  ,1.0       ,0.28125  ,45.858  ,0
483  ,1.0       ,0.2638  ,45.974  ,0
484  ,1.0       ,0.30067  ,46.134  ,0
485  ,1.1       ,0.28125  ,46.392  ,0
486  ,1.0       ,0.21875  ,45.858  ,0
487  ,1.1       ,0.21875  ,46.728  ,0
488  ,1.0       ,0.15625  ,45.858  ,0
489  ,1.0       ,0.15625  ,45.98  ,0
490  ,1.0       ,0.15625  ,46.152  ,0
491  ,1.0       ,0.093752  ,45.858  ,0
492  ,0.5       ,5.4761  ,48.818  ,0
493  ,0.8       ,4.9632  ,48.857  ,0
494  ,0.3       ,5.6601  ,48.613  ,0
495  ,0.5       ,5.2726  ,48.593  ,0
496  ,0.9       ,4.6338  ,48.706  ,0
497  ,0.3       ,5.7613  ,48.409  ,0
498  ,0.4       ,5.4172  ,48.328  ,0
499  ,0.8       ,4.881  ,48.414  ,0
500  ,1.1       ,4.4133  ,48.472  ,0
501  ,0.2       ,5.8204  ,48.243  ,0
502  ,0.3       ,5.5842  ,48.217  ,0
503  ,0.5       ,5.2293  ,48.306  ,0
504  ,0.2       ,5.873  ,48.127  ,0
505  ,0.2       ,5.6683  ,48.138  ,0
506  ,0.3       ,5.4329  ,48.136  ,0
507  ,0.9       ,4.6484  ,48.167  ,0
508  ,1.3       ,4.0988  ,48.206  ,0
509  ,0.6       ,4.9594  ,48.043  ,0
510  ,0.2       ,5.9022  ,48.219  ,0
511  ,0.2       ,5.8958  ,48.383  ,0
512  ,0.3       ,5.8869  ,48.613  ,0
513  ,0.3       ,5.7908  ,48.927  ,0
514  ,0.2       ,5.7835  ,48.093  ,0
515  ,0.5       ,5.6666  ,49.363  ,0
516  ,0.6       ,5.6204  ,49.865  ,0
517  ,0.2       ,5.7035  ,48.244  ,0
518  ,0.2       ,5.6614  ,48.079  ,0
519  ,0.3       ,5.5967  ,48.39  ,0
520  ,0.2       ,5.6007  ,48.069  ,0
521  ,0.6       ,5.4536  ,49.296  ,0
522  ,0.7       ,5.2434  ,49.856  ,0
523  ,0.2       ,5.5404  ,48.058  ,0
524  ,0.3       ,5.5094  ,48.143  ,0
525  ,0.4       ,5.4603  ,48.54  ,0
526  ,0.2       ,5.4804  ,48.045  ,0
527  ,0.6       ,5.2556  ,48.967  ,0
528  ,0.2       ,5.4206  ,48.03  ,0
529  ,0.4       ,5.3767  ,48.489  ,0
530  ,0.7       ,5.1082  ,49.316  ,0
531  ,0.9       ,4.8268  ,49.69  ,0
532  ,0.3       ,5.3612  ,48.014  ,0
533  ,0.3       ,5.3377  ,48.129  ,0
534  ,0.3       ,5.302  ,47.997  ,0
535  ,0.3       ,5.2431  ,47.978  ,0
536  ,0.4       ,5.2065  ,48.094  ,0
537  ,0.6       ,5.0826  ,48.48  ,0
538  ,0.8       ,4.8767  ,49.27  ,0
539  ,1.0       ,4.5531  ,49.65  ,0
540  ,0.3       ,5.1841  ,47.958  ,0
541  ,0.6       ,5.0723  ,48.252  ,0
542  ,0.4       ,5.123  ,47.938  ,0
543  ,0.5       ,5.0797  ,48.054  ,0
544  ,0.4       ,5.0606  ,47.914  ,0
545  ,0.6       ,4.9577  ,48.178  ,0
546  ,1.0       ,4.63  ,49.246  ,0
547  ,1.1       ,4.3004  ,49.581  ,0
548  ,0.5       ,4.9992  ,47.886  ,0
549  ,0.5       ,4.9391  ,47.856  ,0
550  ,0.6       ,4.9143  ,47.937  ,0
551  ,0.8       ,4.8018  ,48.125  ,0
552  ,0.9       ,4.6498  ,48.343  ,0
553  ,0.6       ,4.8799  ,47.825  ,0
554  ,1.1       ,4.277  ,48.99  ,0
555  ,1.2       ,3.918  ,49.47  ,0
556  ,0.7       ,4.8218  ,47.792  ,0
557  ,0.7       ,4.779  ,47.898  ,0
558  ,0.7       ,4.7647  ,47.758  ,0
559  ,0.9       ,4.645  ,48.025  ,0
560  ,1.0       ,4.5241  ,48.184  ,0
561  ,0.8       ,4.7086  ,47.722  ,0
562  ,0.9       ,4.6522  ,47.826  ,0
563  ,1.3       ,3.9078  ,48.996  ,0
564  ,1.3       ,3.5459  ,49.296  ,0
565  ,0.9       ,4.6535  ,47.684  ,0
566  ,1.0       ,4.4997  ,47.962  ,0
567  ,1.2       ,4.3023  ,48.158  ,0
568  ,1.3       ,4.0764  ,48.538  ,0
569  ,1.0       ,4.5995  ,47.645  ,0
570  ,1.0       ,4.5305  ,47.747  ,0
571  ,1.1       ,4.5464  ,47.604  ,0
572  ,1.2       ,4.3545  ,47.865  ,0
573  ,1.4       ,3.6149  ,48.786  ,0
574  ,1.4       ,3.3229  ,49.117  ,0
575  ,1.2       ,4.4944  ,47.562  ,0
576  ,1.2       ,4.4191  ,47.656  ,0
577  ,1.4       ,3.8368  ,48.266  ,0
578  ,1.2       ,4.4433  ,47.518  ,0
579  ,1.3       ,4.2673  ,47.74  ,0
580  ,1.3       ,4.1267  ,47.96  ,0
581  ,1.3       ,4.3934  ,47.473  ,0
582  ,1.3       ,4.3156  ,47.564  ,0
583  ,1.5       ,3.3922  ,48.456  ,0
584  ,1.5       ,3.1285  ,48.897  ,0
585  ,1.4       ,4.3447  ,47.426  ,0
586  ,1.4       ,4.137  ,47.686  ,0
587  ,1.4       ,3.8761  ,47.853  ,0
588  ,1.5       ,3.5838  ,48.096  ,0
589  ,1.5       ,4.2977  ,47.377  ,0
590  ,1.5       ,4.21  ,47.47  ,0
591  ,1.6       ,4.2523  ,47.327  ,0
592  ,1.5       ,4.0057  ,47.569  ,0
593  ,1.5       ,3.2108  ,48.08  ,0
594  ,1.5       ,2.9726  ,48.535  ,0
595  ,1.7       ,4.2086  ,47.276  ,0
596  ,1.6       ,4.1073  ,47.362  ,0
597  ,1.5       ,3.5853  ,47.768  ,0
598  ,1.8       ,4.1663  ,47.224  ,0
599  ,1.6       ,3.8708  ,47.437  ,0
600  ,1.9       ,4.1257  ,47.171  ,0
601  ,1.8       ,4.0196  ,47.245  ,0
602  ,1.6       ,3.7133  ,47.565  ,0
603  ,1.5       ,2.6579  ,48.198  ,0
604  ,2.0       ,4.0865  ,47.117  ,0
605  ,1.7       ,3.8297  ,47.283  ,0
606  ,2.1       ,4.049  ,47.062  ,0
607  ,1.9       ,3.9403  ,47.128  ,0
608  ,1.6       ,3.5982  ,47.447  ,0
609  ,2.2       ,4.0129  ,47.006  ,0
610  ,1.6       ,3.3078  ,47.448  ,0
611  ,1.5       ,2.298  ,47.973  ,0
612  ,2.2       ,3.9785  ,46.949  ,0
613  ,2.0       ,3.8586  ,47.005  ,0
614  ,2.3       ,3.9456  ,46.891  ,0
615  ,1.9       ,3.5972  ,47.016  ,0
616  ,2.4       ,3.9142  ,46.832  ,0
617  ,2.2       ,3.7957  ,46.854  ,0
618  ,2.5       ,3.8844  ,46.771  ,0
619  ,2.0       ,3.5878  ,46.85  ,0
620  ,1.7       ,3.3936  ,47.086  ,0
621  ,2.5       ,3.8565  ,46.71  ,0
622  ,2.6       ,3.8324  ,46.647  ,0
623  ,1.8       ,3.3556  ,46.929  ,0
624  ,1.6       ,3.0499  ,46.893  ,0
625  ,2.7       ,3.8121  ,46.586  ,0
626  ,2.4       ,3.6885  ,46.612  ,0
627  ,2.8       ,3.7926  ,46.527  ,0
628  ,2.2       ,3.5242  ,46.557  ,0
629  ,2.8       ,3.7735  ,46.469  ,0
630  ,2.5       ,3.6696  ,46.481  ,0
631  ,2.9       ,3.756  ,46.409  ,0
632  ,1.9       ,3.3024  ,46.53  ,0
633  ,2.9       ,3.74  ,46.35  ,0
634  ,3.0       ,3.7256  ,46.29  ,0
635  ,2.6       ,3.5996  ,46.265  ,0
636  ,3.0       ,3.7127  ,46.23  ,0
637  ,2.3       ,3.431  ,46.233  ,0
638  ,3.1       ,3.7042  ,46.107  ,0
639  ,3.1       ,3.6835  ,46.048  ,0
640  ,2.7       ,3.5704  ,46.053  ,0
641  ,3.1       ,3.6717  ,45.925  ,0
642  ,0.6       ,6.5509  ,68.655  ,0
643  ,0.6       ,6.0534  ,68.655  ,0
644  ,0.6       ,5.5495  ,68.655  ,0
645  ,0.6       ,5.045  ,68.655  ,0
646  ,0.6       ,4.5403  ,68.655  ,0
647  ,0.6       ,4.0356  ,68.655  ,0
648  ,0.6       ,3.5308  ,68.655  ,0
649  ,0.7       ,3.0261  ,68.655  ,0
650  ,0.7       ,2.5194  ,68.652  ,0
651  ,0.7       ,2  ,68.619  ,0
652  ,0.7       ,1.4755  ,68.485  ,0
653  ,0.7       ,1.0174  ,68.802  ,0
654  ,0.7       ,0.50392  ,68.655  ,0
655  ,0.6       ,6.6823  ,69.158  ,0
656  ,0.6       ,6.197  ,69.158  ,0
657  ,0.6       ,5.6984  ,69.158  ,0
658  ,0.6       ,5.1966  ,69.158  ,0
659  ,0.6       ,4.6942  ,69.158  ,0
660  ,0.6       ,4.1917  ,69.158  ,0
661  ,0.6       ,3.6892  ,69.158  ,0
662  ,0.6       ,3.1866  ,69.158  ,0
663  ,0.6       ,2.6826  ,69.157  ,0
664  ,0.7       ,2.1647  ,69.14  ,0
665  ,0.7       ,1.5738  ,69.078  ,0
666  ,0.7       ,1.0891  ,69.263  ,0
667  ,0.7       ,0.51403  ,69.158  ,0
668  ,0.6       ,6.8579  ,69.661  ,0
669  ,0.6       ,6.3522  ,69.661  ,0
670  ,0.6       ,5.8538  ,69.661  ,0
671  ,0.6       ,5.3539  ,69.661  ,0
672  ,0.6       ,4.8532  ,69.661  ,0
673  ,0.6       ,4.3523  ,69.661  ,0
674  ,0.6       ,3.8514  ,69.661  ,0
675  ,0.6       ,3.3504  ,69.661  ,0
676  ,0.6       ,2.849  ,69.661  ,0
677  ,0.6       ,2.3434  ,69.653  ,0
678  ,0.6       ,1.8302  ,69.609  ,0
679  ,0.6       ,1.3853  ,69.546  ,0
680  ,0.6       ,0.92467  ,69.728  ,0
681  ,0.6       ,0.48985  ,69.661  ,0
682  ,0.5       ,7.0083  ,70.164  ,0
683  ,0.5       ,6.5121  ,70.164  ,0
684  ,0.6       ,6.011  ,70.164  ,0
685  ,0.6       ,5.5098  ,70.164  ,0
686  ,0.6       ,5.0083  ,70.164  ,0
687  ,0.6       ,4.5065  ,70.164  ,0
688  ,0.6       ,4.0047  ,70.164  ,0
689  ,0.6       ,3.5029  ,70.164  ,0
690  ,0.6       ,3.001  ,70.164  ,0
691  ,0.6       ,2.4964  ,70.16  ,0
692  ,0.6       ,1.9772  ,70.124  ,0
693  ,0.6       ,1.453  ,69.994  ,0
694  ,0.6       ,1.007  ,70.315  ,0
695  ,0.6       ,0.50059  ,70.164  ,0
696  ,0.5       ,7.168  ,70.667  ,0
697  ,0.5       ,6.676  ,70.667  ,0
698  ,0.6       ,6.1771  ,70.667  ,0
699  ,0.6       ,5.6765  ,70.667  ,0
700  ,0.6       ,5.1756  ,70.667  ,0
701  ,0.6       ,4.6746  ,70.667  ,0
702  ,0.6       ,4.1735  ,70.667  ,0
703  ,0.6       ,3.6724  ,70.667  ,0
704  ,0.6       ,3.1713  ,70.667  ,0
705  ,0.6       ,2.6686  ,70.666  ,0
706  ,0.6       ,2.1517  ,70.648  ,0
707  ,0.6       ,1.5626  ,70.587  ,0
708  ,0.6       ,1.0838  ,70.772  ,0
709  ,0.6       ,0.512  ,70.667  ,0
710  ,0.4       ,7.3698  ,71.17  ,0
711  ,0.5       ,6.8314  ,71.17  ,0
712  ,0.5       ,6.3267  ,71.17  ,0
713  ,0.6       ,5.8268  ,71.17  ,0
714  ,0.6       ,5.3274  ,71.17  ,0
715  ,0.6       ,4.828  ,71.17  ,0
716  ,0.6       ,4.3294  ,71.17  ,0
717  ,0.6       ,3.8317  ,71.169  ,0
718  ,0.6       ,3.3325  ,71.17  ,0
719  ,0.6       ,2.8322  ,71.17  ,0
720  ,0.6       ,2.3295  ,71.16  ,0
721  ,0.6       ,1.8206  ,71.117  ,0
722  ,0.6       ,1.3792  ,71.055  ,0
723  ,0.6       ,0.92041  ,71.237  ,0
724  ,0.6       ,0.49132  ,71.17  ,0
725  ,0.4       ,7.5  ,71.673  ,0
726  ,0.5       ,6.9422  ,71.673  ,0
727  ,0.5       ,6.4262  ,71.673  ,0
728  ,0.6       ,5.9233  ,71.673  ,0
729  ,0.6       ,5.4233  ,71.673  ,0
730  ,0.6       ,4.9238  ,71.673  ,0
731  ,0.6       ,4.4264  ,71.67  ,0
732  ,0.6       ,3.9416  ,71.656  ,0
733  ,0.6       ,3.4539  ,71.665  ,0
734  ,0.6       ,2.9454  ,71.678  ,0
735  ,0.6       ,2.4471  ,71.652  ,0
736  ,0.6       ,1.9532  ,71.614  ,0
737  ,0.6       ,1.443  ,71.499  ,0
738  ,0.6       ,0.98942  ,71.831  ,0
739  ,0.6       ,0.5  ,71.673  ,0
740  ,0.4       ,7.5  ,72.176  ,0
741  ,0.5       ,6.9888  ,72.176  ,0
742  ,0.5       ,6.4757  ,72.176  ,0
743  ,0.5       ,5.971  ,72.176  ,0
744  ,0.6       ,5.4699  ,72.176  ,0
745  ,0.6       ,4.97  ,72.176  ,0
746  ,0.6       ,4.4718  ,72.171  ,0
747  ,0.6       ,3.99  ,72.134  ,0
748  ,0.6       ,3.5895  ,72.051  ,0
749  ,0.6       ,3.073  ,72.226  ,0
750  ,0.6       ,2.5114  ,72.142  ,0
751  ,0.6       ,2.0945  ,72.018  ,0
752  ,0.6       ,1.5715  ,72.075  ,0
753  ,0.6       ,1.0114  ,72.37  ,0
754  ,0.6       ,0.5  ,72.176  ,0
755  ,0.4       ,7.5  ,72.679  ,0
756  ,0.5       ,6.9979  ,72.679  ,0
757  ,0.5       ,6.4939  ,72.679  ,0
758  ,0.5       ,5.9907  ,72.679  ,0
759  ,0.6       ,5.4894  ,72.679  ,0
760  ,0.6       ,4.9891  ,72.679  ,0
761  ,0.6       ,4.4891  ,72.673  ,0
762  ,0.6       ,3.9947  ,72.627  ,0
763  ,0.6       ,3.5239  ,72.493  ,0
764  ,0.6       ,3.0144  ,72.826  ,0
765  ,0.6       ,2.5176  ,72.659  ,0
766  ,0.6       ,2.0312  ,72.448  ,0
767  ,0.6       ,1.5164  ,72.66  ,0
768  ,0.6       ,1.0018  ,72.892  ,0
769  ,0.6       ,0.5  ,72.679  ,0
770  ,0.4       ,7.5  ,73.182  ,0
771  ,0.5       ,6.9996  ,73.182  ,0
772  ,0.5       ,6.4987  ,73.182  ,0
773  ,0.5       ,5.9975  ,73.182  ,0
774  ,0.5       ,5.4967  ,73.182  ,0
775  ,0.6       ,4.9964  ,73.182  ,0
776  ,0.6       ,4.4959  ,73.177  ,0
777  ,0.6       ,3.9884  ,73.143  ,0
778  ,0.6       ,3.4933  ,73.016  ,0
779  ,0.6       ,2.9769  ,73.356  ,0
780  ,0.6       ,2.4911  ,73.196  ,0
781  ,0.6       ,1.9983  ,72.972  ,0
782  ,0.6       ,1.4791  ,73.183  ,0
783  ,0.6       ,0.98267  ,73.39  ,0
784  ,0.6       ,0.5  ,73.182  ,0
785  ,0.5       ,7.5  ,73.685  ,0
786  ,0.5       ,6.9999  ,73.685  ,0
787  ,0.5       ,6.4997  ,73.685  ,0
788  ,0.5       ,5.9994  ,73.685  ,0
789  ,0.5       ,5.4991  ,73.685  ,0
790  ,0.5       ,4.9989  ,73.685  ,0
791  ,0.6       ,4.4998  ,73.68  ,0
792  ,0.6       ,4.0019  ,73.652  ,0
793  ,0.6       ,3.4321  ,73.616  ,0
794  ,0.6       ,2.8945  ,73.818  ,0
795  ,0.6       ,2.4821  ,73.707  ,0
796  ,0.6       ,1.9302  ,73.564  ,0
797  ,0.6       ,1.3923  ,73.62  ,0
798  ,0.6       ,0.98976  ,73.881  ,0
799  ,0.6       ,0.5  ,73.685  ,0
800  ,0.5       ,7.5  ,74.188  ,0
801  ,0.5       ,7  ,74.188  ,0
802  ,0.5       ,6.4999  ,74.188  ,0
803  ,0.5       ,5.9999  ,74.188  ,0
804  ,0.5       ,5.4998  ,74.188  ,0
805  ,0.5       ,4.9997  ,74.188  ,0
806  ,0.5       ,4.5003  ,74.183  ,0
807  ,0.6       ,4.0139  ,74.144  ,0
808  ,0.6       ,3.5982  ,74.05  ,0
809  ,0.6       ,3.0608  ,74.249  ,0
810  ,0.6       ,2.5045  ,74.183  ,0
811  ,0.6       ,2.0925  ,74.033  ,0
812  ,0.6       ,1.5587  ,74.099  ,0
813  ,0.6       ,1.0066  ,74.389  ,0
814  ,0.6       ,0.5  ,74.188  ,0
815  ,0.5       ,7.5  ,74.691  ,0
816  ,0.5       ,7  ,74.691  ,0
817  ,0.5       ,6.5  ,74.691  ,0
818  ,0.5       ,6  ,74.691  ,0
819  ,0.5       ,5.4999  ,74.691  ,0
820  ,0.5       ,4.9999  ,74.691  ,0
821  ,0.5       ,4.4998  ,74.686  ,0
822  ,0.5       ,3.9959  ,74.652  ,0
823  ,0.6       ,3.5171  ,74.519  ,0
824  ,0.6       ,2.9895  ,74.848  ,0
825  ,0.6       ,2.5007  ,74.691  ,0
826  ,0.6       ,2.0154  ,74.48  ,0
827  ,0.6       ,1.49  ,74.678  ,0
828  ,0.6       ,0.98533  ,74.894  ,0
829  ,0.6       ,0.5  ,74.691  ,0
830  ,0.5       ,7.5  ,75.194  ,0
831  ,0.5       ,7  ,75.194  ,0
832  ,0.5       ,6.5  ,75.194  ,0
833  ,0.5       ,6  ,75.194  ,0
834  ,0.5       ,5.5  ,75.194  ,0
835  ,0.5       ,5  ,75.194  ,0
836  ,0.5       ,4.501  ,75.189  ,0
837  ,0.5       ,4.0041  ,75.161  ,0
838  ,0.5       ,3.4381  ,75.122  ,0
839  ,0.5       ,2.8983  ,75.322  ,0
840  ,0.6       ,2.4865  ,75.21  ,0
841  ,0.6       ,1.9359  ,75.068  ,0
842  ,0.6       ,1.3959  ,75.125  ,0
843  ,0.6       ,0.99075  ,75.388  ,0
844  ,0.6       ,0.5  ,75.194  ,0
845  ,0.5       ,7.5  ,75.697  ,0
846  ,0.5       ,7  ,75.697  ,0
847  ,0.5       ,6.5  ,75.697  ,0
848  ,0.5       ,6  ,75.697  ,0
849  ,0.5       ,5.5  ,75.697  ,0
850  ,0.5       ,5  ,75.697  ,0
851  ,0.5       ,4.5007  ,75.692  ,0
852  ,0.5       ,4.0145  ,75.652  ,0
853  ,0.5       ,3.5998  ,75.559  ,0
854  ,0.5       ,3.0622  ,75.757  ,0
855  ,0.5       ,2.506  ,75.69  ,0
856  ,0.6       ,2.0946  ,75.539  ,0
857  ,0.6       ,1.5602  ,75.607  ,0
858  ,0.6       ,1.007  ,75.897  ,0
859  ,0.6       ,0.5  ,75.697  ,0
860  ,0.5       ,7.5  ,76.2  ,0
861  ,0.5       ,7  ,76.2  ,0
862  ,0.5       ,6.5  ,76.2  ,0
863  ,0.5       ,6  ,76.2  ,0
864  ,0.5       ,5.5  ,76.2  ,0
865  ,0.5       ,5  ,76.2  ,0
866  ,0.5       ,4.4991  ,76.196  ,0
867  ,0.5       ,3.9938  ,76.162  ,0
868  ,0.5       ,3.516  ,76.028  ,0
869  ,0.5       ,2.9861  ,76.357  ,0
870  ,0.5       ,2.4984  ,76.2  ,0
871  ,0.5       ,2.0145  ,75.988  ,0
872  ,0.5       ,1.4878  ,76.186  ,0
873  ,0.5       ,0.98325  ,76.402  ,0
874  ,0.5       ,0.5  ,76.2  ,0
875  ,0.5       ,7.5  ,76.703  ,0
876  ,0.5       ,7  ,76.703  ,0
877  ,0.5       ,6.5  ,76.703  ,0
878  ,0.5       ,6  ,76.703  ,0
879  ,0.5       ,5.5  ,76.703  ,0
880  ,0.5       ,5  ,76.703  ,0
881  ,0.5       ,4.4991  ,76.701  ,0
882  ,0.5       ,3.9877  ,76.687  ,0
883  ,0.5       ,3.4134  ,76.638  ,0
884  ,0.5       ,2.8757  ,76.826  ,0
885  ,0.5       ,2.4651  ,76.732  ,0
886  ,0.5       ,1.9106  ,76.579  ,0
887  ,0.5       ,1.3765  ,76.62  ,0
888  ,0.5       ,0.97481  ,76.882  ,0
889  ,0.5       ,0.5  ,76.703  ,0
890  ,0.5       ,7.5  ,77.206  ,0
891  ,0.5       ,7  ,77.206  ,0
892  ,0.5       ,6.5  ,77.206  ,0
893  ,0.5       ,6  ,77.206  ,0
894  ,0.5       ,5.5  ,77.206  ,0
895  ,0.5       ,5  ,77.206  ,0
896  ,0.5       ,4.4997  ,77.206  ,0
897  ,0.5       ,3.9965  ,77.202  ,0
898  ,0.5       ,3.4807  ,77.194  ,0
899  ,0.5       ,2.9615  ,77.216  ,0
900  ,0.5       ,2.4673  ,77.225  ,0
901  ,0.5       ,1.972  ,77.15  ,0
902  ,0.5       ,1.4592  ,77.033  ,0
903  ,0.5       ,0.98949  ,77.368  ,0
904  ,0.5       ,0.5  ,77.206  ,0
905  ,0.5       ,7.5  ,77.709  ,0
906  ,0.5       ,7  ,77.709  ,0
907  ,0.5       ,6.5  ,77.709  ,0
908  ,0.5       ,6  ,77.709  ,0
909  ,0.5       ,5.5  ,77.709  ,0
910  ,0.5       ,5  ,77.709  ,0
911  ,0.5       ,4.4999  ,77.709  ,0
912  ,0.5       ,3.9992  ,77.708  ,0
913  ,0.5       ,3.4959  ,77.706  ,0
914  ,0.5       ,2.9901  ,77.709  ,0
915  ,0.5       ,2.4874  ,77.707  ,0
916  ,0.5       ,1.9884  ,77.659  ,0
917  ,0.5       ,1.4869  ,77.532  ,0
918  ,0.5       ,0.99644  ,77.868  ,0
919  ,0.5       ,0.5  ,77.709  ,0
920  ,0.5       ,7.5  ,78.212  ,0
921  ,0.5       ,7  ,78.212  ,0
922  ,0.5       ,6.5  ,78.212  ,0
923  ,0.5       ,6  ,78.212  ,0
924  ,0.5       ,5.5  ,78.212  ,0
925  ,0.5       ,5  ,78.212  ,0
926  ,0.5       ,4.5  ,78.212  ,0
927  ,0.5       ,3.9999  ,78.212  ,0
928  ,0.5       ,3.4992  ,78.211  ,0
929  ,0.5       ,2.9977  ,78.212  ,0
930  ,0.5       ,2.4963  ,78.206  ,0
931  ,0.5       ,1.9958  ,78.159  ,0
932  ,0.5       ,1.4955  ,78.034  ,0
933  ,0.5       ,0.99884  ,78.37  ,0
934  ,0.5       ,0.5  ,78.212  ,0
935  ,0.5       ,7.5  ,78.715  ,0
936  ,0.5       ,7  ,78.715  ,0
937  ,0.5       ,6.5  ,78.715  ,0
938  ,0.5       ,6  ,78.715  ,0
939  ,0.5       ,5.5  ,78.715  ,0
940  ,0.5       ,5  ,78.715  ,0
941  ,0.5       ,4.5  ,78.715  ,0
942  ,0.5       ,4  ,78.715  ,0
943  ,0.5       ,3.4999  ,78.715  ,0
944  ,0.5       ,2.9995  ,78.715  ,0
945  ,0.5       ,2.4991  ,78.708  ,0
946  ,0.5       ,1.9987  ,78.66  ,0
947  ,0.5       ,1.4985  ,78.536  ,0
948  ,0.5       ,0.99963  ,78.873  ,0
949  ,0.5       ,0.5  ,78.715  ,0
950  ,0.5       ,7.5  ,79.218  ,0
951  ,0.5       ,7  ,79.218  ,0
952  ,0.5       ,6.5  ,79.218  ,0
953  ,0.5       ,6  ,79.218  ,0
954  ,0.5       ,5.5  ,79.218  ,0
955  ,0.5       ,5  ,79.218  ,0
956  ,0.5       ,4.5  ,79.218  ,0
957  ,0.5       ,4  ,79.218  ,0
958  ,0.5       ,3.5  ,79.218  ,0
959  ,0.5       ,2.9999  ,79.218  ,0
960  ,0.5       ,2.4998  ,79.211  ,0
961  ,0.5       ,1.9997  ,79.163  ,0
962  ,0.5       ,1.4995  ,79.039  ,0
963  ,0.5       ,0.99989  ,79.376  ,0
964  ,0.5       ,0.5  ,79.218  ,0
965  ,0.5       ,7.5  ,79.721  ,0
966  ,0.5       ,7  ,79.721  ,0
967  ,0.5       ,6.5  ,79.721  ,0
968  ,0.5       ,6  ,79.721  ,0
969  ,0.5       ,5.5  ,79.721  ,0
970  ,0.5       ,5  ,79.721  ,0
971  ,0.5       ,4.5  ,79.721  ,0
972  ,0.5       ,4  ,79.721  ,0
973  ,0.5       ,3.5  ,79.721  ,0
974  ,0.5       ,3  ,79.721  ,0
975  ,0.5       ,2.5  ,79.714  ,0
976  ,0.5       ,1.9999  ,79.666  ,0
977  ,0.5       ,1.4999  ,79.542  ,0
978  ,0.5       ,0.99997  ,79.879  ,0
979  ,0.5       ,0.5  ,79.721  ,0
980  ,0.5       ,7.5  ,80.224  ,0
981  ,0.5       ,7  ,80.224  ,0
982  ,0.5       ,6.5  ,80.224  ,0
983  ,0.5       ,6  ,80.224  ,0
984  ,0.5       ,5.5  ,80.224  ,0
985  ,0.5       ,5  ,80.224  ,0
986  ,0.5       ,4.5  ,80.224  ,0
987  ,0.5       ,4  ,80.224  ,0
988  ,0.5       ,3.5  ,80.224  ,0
989  ,0.5       ,3  ,80.224  ,0
990  ,0.5       ,2.5  ,80.217  ,0
991  ,0.5       ,2  ,80.169  ,0
992  ,0.5       ,1.5  ,80.045  ,0
993  ,0.5       ,0.99999  ,80.382  ,0
994  ,0.5       ,0.5  ,80.224  ,0
995  ,0.5       ,7.5  ,80.727  ,0
996  ,0.5       ,7  ,80.727  ,0
997  ,0.5       ,6.5  ,80.727  ,0
998  ,0.5       ,6  ,80.727  ,0
999  ,0.5       ,5.5  ,80.727  ,0
1000  ,0.5       ,5  ,80.727  ,0
1001  ,0.5       ,4.5  ,80.727  ,0
1002  ,0.5       ,4  ,80.727  ,0
1003  ,0.5       ,3.5  ,80.727  ,0
1004  ,0.5       ,3  ,80.727  ,0
1005  ,0.5       ,2.5  ,80.72  ,0
1006  ,0.5       ,2  ,80.672  ,0
1007  ,0.5       ,1.5  ,80.548  ,0
1008  ,0.5       ,1  ,80.885  ,0
1009  ,0.5       ,0.5  ,80.727  ,0
1010  ,0.5       ,7.5  ,81.23  ,0
1011  ,0.5       ,7  ,81.23  ,0
1012  ,0.5       ,6.5  ,81.23  ,0
1013  ,0.5       ,6  ,81.23  ,0
1014  ,0.5       ,5.5  ,81.23  ,0
1015  ,0.5       ,5  ,81.23  ,0
1016  ,0.5       ,4.5  ,81.23  ,0
1017  ,0.5       ,4  ,81.23  ,0
1018  ,0.5       ,3.5  ,81.23  ,0
1019  ,0.5       ,3  ,81.23  ,0
1020  ,0.5       ,2.5  ,81.223  ,0
1021  ,0.5       ,2  ,81.175  ,0
1022  ,0.5       ,1.5  ,81.051  ,0
1023  ,0.5       ,1  ,81.388  ,0
1024  ,0.5       ,0.5  ,81.23  ,0
1025  ,0.5       ,7.5  ,81.733  ,0
1026  ,0.5       ,7  ,81.733  ,0
1027  ,0.5       ,6.5  ,81.733  ,0
1028  ,0.5       ,6  ,81.733  ,0
1029  ,0.5       ,5.5  ,81.733  ,0
1030  ,0.5       ,5  ,81.733  ,0
1031  ,0.5       ,4.5  ,81.733  ,0
1032  ,0.5       ,4  ,81.733  ,0
1033  ,0.5       ,3.5  ,81.733  ,0
1034  ,0.5       ,3  ,81.733  ,0
1035  ,0.5       ,2.5  ,81.726  ,0
1036  ,0.5       ,2  ,81.678  ,0
1037  ,0.5       ,1.5  ,81.553  ,0
1038  ,0.5       ,1  ,81.891  ,0
1039  ,0.5       ,0.5  ,81.733  ,0
1040  ,0.5       ,7.5  ,82.236  ,0
1041  ,0.5       ,7  ,82.236  ,0
1042  ,0.5       ,6.5  ,82.236  ,0
1043  ,0.5       ,6  ,82.236  ,0
1044  ,0.5       ,5.5  ,82.236  ,0
1045  ,0.5       ,5  ,82.236  ,0
1046  ,0.5       ,4.5  ,82.236  ,0
1047  ,0.5       ,4  ,82.236  ,0
1048  ,0.5       ,3.5  ,82.236  ,0
1049  ,0.5       ,3  ,82.236  ,0
1050  ,0.5       ,2.5  ,82.229  ,0
1051  ,0.5       ,2  ,82.181  ,0
1052  ,0.5       ,1.5  ,82.056  ,0
1053  ,0.5       ,1  ,82.394  ,0
1054  ,0.5       ,0.5  ,82.236  ,0
1055  ,0.5       ,7.5  ,82.739  ,0
1056  ,0.5       ,7  ,82.739  ,0
1057  ,0.5       ,6.5  ,82.739  ,0
1058  ,0.5       ,6  ,82.739  ,0
1059  ,0.5       ,5.5  ,82.739  ,0
1060  ,0.5       ,5  ,82.739  ,0
1061  ,0.5       ,4.5  ,82.739  ,0
1062  ,0.5       ,4  ,82.739  ,0
1063  ,0.5       ,3.5  ,82.739  ,0
1064  ,0.5       ,3  ,82.739  ,0
1065  ,0.5       ,2.5  ,82.732  ,0
1066  ,0.5       ,2  ,82.684  ,0
1067  ,0.5       ,1.5  ,82.559  ,0
1068  ,0.5       ,1  ,82.897  ,0
1069  ,0.5       ,0.5  ,82.739  ,0
1070  ,0.5       ,7.5  ,83.242  ,0
1071  ,0.5       ,7  ,83.242  ,0
1072  ,0.5       ,6.5  ,83.242  ,0
1073  ,0.5       ,6  ,83.242  ,0
1074  ,0.5       ,5.5  ,83.242  ,0
1075  ,0.5       ,5  ,83.242  ,0
1076  ,0.5       ,4.5  ,83.242  ,0
1077  ,0.5       ,4  ,83.242  ,0
1078  ,0.5       ,3.5  ,83.242  ,0
1079  ,0.5       ,3  ,83.242  ,0
1080  ,0.5       ,2.5  ,83.235  ,0
1081  ,0.5       ,2  ,83.187  ,0
1082  ,0.5       ,1.5  ,83.062  ,0
1083  ,0.5       ,1  ,83.4  ,0
1084  ,0.5       ,0.5  ,83.242  ,0
1085  ,0.5       ,7.5  ,83.745  ,0
1086  ,0.5       ,7  ,83.745  ,0
1087  ,0.5       ,6.5  ,83.745  ,0
1088  ,0.5       ,6  ,83.745  ,0
1089  ,0.5       ,5.5  ,83.745  ,0
1090  ,0.5       ,5  ,83.745  ,0
1091  ,0.5       ,4.5  ,83.745  ,0
1092  ,0.5       ,4  ,83.745  ,0
1093  ,0.5       ,3.5  ,83.745  ,0
1094  ,0.5       ,3  ,83.745  ,0
1095  ,0.5       ,2.5  ,83.738  ,0
1096  ,0.5       ,2  ,83.69  ,0
1097  ,0.5       ,1.5  ,83.565  ,0
1098  ,0.5       ,1  ,83.903  ,0
1099  ,0.5       ,0.5  ,83.745  ,0
1100  ,0.5       ,7.5  ,84.248  ,0
1101  ,0.5       ,7  ,84.248  ,0
1102  ,0.5       ,6.5  ,84.248  ,0
1103  ,0.5       ,6  ,84.248  ,0
1104  ,0.5       ,5.5  ,84.248  ,0
1105  ,0.5       ,5.0008  ,84.247  ,0
1106  ,0.5       ,4.5025  ,84.246  ,0
1107  ,0.5       ,4.0028  ,84.248  ,0
1108  ,0.5       ,3.5014  ,84.248  ,0
1109  ,0.5       ,3.0012  ,84.247  ,0
1110  ,0.5       ,2.502  ,84.24  ,0
1111  ,0.5       ,2.0014  ,84.195  ,0
1112  ,0.5       ,1.5003  ,84.07  ,0
1113  ,0.5       ,1.0003  ,84.407  ,0
1114  ,0.5       ,0.5  ,84.248  ,0
1115  ,0.5       ,7.5  ,84.751  ,0
1116  ,0.5       ,7  ,84.751  ,0
1117  ,0.5       ,6.5  ,84.751  ,0
1118  ,0.5       ,6  ,84.751  ,0
1119  ,0.5       ,5.5  ,84.751  ,0
1120  ,0.5       ,5.0014  ,84.748  ,0
1121  ,0.5       ,4.5156  ,84.735  ,0
1122  ,0.5       ,4.026  ,84.744  ,0
1123  ,0.5       ,3.515  ,84.759  ,0
1124  ,0.5       ,3.0052  ,84.751  ,0
1125  ,0.5       ,2.5148  ,84.732  ,0
1126  ,0.5       ,2.0155  ,84.704  ,0
1127  ,0.5       ,1.5033  ,84.593  ,0
1128  ,0.5       ,1.0016  ,84.914  ,0
1129  ,0.5       ,0.5  ,84.751  ,0
1130  ,0.5       ,7.5  ,85.254  ,0
1131  ,0.5       ,7  ,85.254  ,0
1132  ,0.5       ,6.5  ,85.254  ,0
1133  ,0.5       ,6  ,85.254  ,0
1134  ,0.5       ,5.5  ,85.254  ,0
1135  ,0.5       ,5.0002  ,85.251  ,0
1136  ,0.5       ,4.5076  ,85.228  ,0
1137  ,0.5       ,4.1069  ,85.148  ,0
1138  ,0.5       ,3.5717  ,85.316  ,0
1139  ,0.5       ,3.0138  ,85.266  ,0
1140  ,0.5       ,2.5089  ,85.226  ,0
1141  ,0.5       ,2.0947  ,85.125  ,0
1142  ,0.5       ,1.5064  ,85.225  ,0
1143  ,0.5       ,1.0017  ,85.285  ,0
1144  ,0.5       ,0.5  ,85.254  ,0
1145  ,0.5       ,7.5  ,85.756  ,0
1146  ,0.5       ,7  ,85.756  ,0
1147  ,0.5       ,6.5  ,85.756  ,0
1148  ,0.5       ,6  ,85.756  ,0
1149  ,0.5       ,5.5  ,85.756  ,0
1150  ,0.5       ,5.0003  ,85.754  ,0
1151  ,0.5       ,4.4951  ,85.741  ,0
1152  ,0.5       ,3.9431  ,85.687  ,0
1153  ,0.5       ,3.4017  ,85.859  ,0
1154  ,0.5       ,2.9963  ,85.785  ,0
1155  ,0.5       ,2.4955  ,85.743  ,0
1156  ,0.5       ,1.9427  ,85.637  ,0
1157  ,0.5       ,1.4864  ,85.691  ,0
1158  ,0.5       ,0.99851  ,85.747  ,0
1159  ,0.5       ,0.5  ,85.756  ,0
1160  ,0.5       ,7.5  ,86.259  ,0
1161  ,0.5       ,7  ,86.259  ,0
1162  ,0.5       ,6.5  ,86.259  ,0
1163  ,0.5       ,6  ,86.259  ,0
1164  ,0.5       ,5.5  ,86.259  ,0
1165  ,0.5       ,5.0012  ,86.257  ,0
1166  ,0.5       ,4.5131  ,86.24  ,0
1167  ,0.5       ,4.0122  ,86.24  ,0
1168  ,0.5       ,3.4856  ,86.273  ,0
1169  ,0.5       ,2.9836  ,86.281  ,0
1170  ,0.5       ,2.5083  ,86.246  ,0
1171  ,0.5       ,2.0029  ,86.2  ,0
1172  ,0.5       ,1.4897  ,86.078  ,0
1173  ,0.5       ,0.99899  ,86.393  ,0
1174  ,0.5       ,0.5  ,86.259  ,0
1175  ,0.5       ,7.5  ,86.762  ,0
1176  ,0.5       ,7  ,86.762  ,0
1177  ,0.5       ,6.5  ,86.762  ,0
1178  ,0.5       ,6  ,86.762  ,0
1179  ,0.5       ,5.5  ,86.762  ,0
1180  ,0.5       ,5.0001  ,86.76  ,0
1181  ,0.5       ,4.507  ,86.736  ,0
1182  ,0.5       ,4.1035  ,86.653  ,0
1183  ,0.5       ,3.5651  ,86.824  ,0
1184  ,0.5       ,3.0048  ,86.779  ,0
1185  ,0.5       ,2.5031  ,86.74  ,0
1186  ,0.5       ,2.09  ,86.633  ,0
1187  ,0.5       ,1.5026  ,86.726  ,0
1188  ,0.5       ,1.0003  ,86.785  ,0
1189  ,0.5       ,0.5  ,86.762  ,0
1190  ,0.5       ,7.5  ,87.265  ,0
1191  ,0.5       ,7  ,87.265  ,0
1192  ,0.5       ,6.5  ,87.265  ,0
1193  ,0.5       ,6  ,87.265  ,0
1194  ,0.5       ,5.5  ,87.265  ,0
1195  ,0.5       ,4.9995  ,87.264  ,0
1196  ,0.5       ,4.4924  ,87.251  ,0
1197  ,0.5       ,3.9394  ,87.195  ,0
1198  ,0.5       ,3.3985  ,87.367  ,0
1199  ,0.5       ,2.9925  ,87.295  ,0
1200  ,0.5       ,2.4909  ,87.253  ,0
1201  ,0.5       ,1.9394  ,87.144  ,0
1202  ,0.5       ,1.4845  ,87.195  ,0
1203  ,0.5       ,0.99755  ,87.253  ,0
1204  ,0.5       ,0.5  ,87.265  ,0
1205  ,0.5       ,7.5  ,87.768  ,0
1206  ,0.5       ,7  ,87.768  ,0
1207  ,0.5       ,6.5  ,87.768  ,0
1208  ,0.5       ,6  ,87.768  ,0
1209  ,0.5       ,5.5  ,87.768  ,0
1210  ,0.5       ,5.0006  ,87.767  ,0
1211  ,0.5       ,4.5  ,87.763  ,0
1212  ,0.5       ,3.9887  ,87.755  ,0
1213  ,0.5       ,3.4715  ,87.774  ,0
1214  ,0.5       ,2.9789  ,87.79  ,0
1215  ,0.5       ,2.4947  ,87.767  ,0
1216  ,0.5       ,1.9879  ,87.702  ,0
1217  ,0.5       ,1.486  ,87.566  ,0
1218  ,0.5       ,0.99747  ,87.897  ,0
1219  ,0.5       ,0.5  ,87.768  ,0
1220  ,0.5       ,7.5  ,88.271  ,0
1221  ,0.5       ,7  ,88.271  ,0
1222  ,0.5       ,6.5  ,88.271  ,0
1223  ,0.5       ,6  ,88.271  ,0
1224  ,0.5       ,5.5  ,88.271  ,0
1225  ,0.5       ,5.0013  ,88.269  ,0
1226  ,0.5       ,4.515  ,88.255  ,0
1227  ,0.5       ,4.023  ,88.262  ,0
1228  ,0.5       ,3.5074  ,88.278  ,0
1229  ,0.5       ,2.9959  ,88.276  ,0
1230  ,0.5       ,2.5087  ,88.257  ,0
1231  ,0.5       ,2.0112  ,88.224  ,0
1232  ,0.5       ,1.4982  ,88.103  ,0
1233  ,0.5       ,1.0004  ,88.429  ,0
1234  ,0.5       ,0.5  ,88.271  ,0
1235  ,0.5       ,7.5  ,88.774  ,0
1236  ,0.5       ,7  ,88.774  ,0
1237  ,0.5       ,6.5  ,88.774  ,0
1238  ,0.5       ,6  ,88.774  ,0
1239  ,0.5       ,5.5  ,88.774  ,0
1240  ,0.5       ,5.0002  ,88.772  ,0
1241  ,0.5       ,4.5075  ,88.749  ,0
1242  ,0.5       ,4.1062  ,88.668  ,0
1243  ,0.5       ,3.5702  ,88.836  ,0
1244  ,0.5       ,3.011  ,88.787  ,0
1245  ,0.5       ,2.5062  ,88.749  ,0
1246  ,0.5       ,2.0924  ,88.647  ,0
1247  ,0.5       ,1.505  ,88.744  ,0
1248  ,0.5       ,1.0012  ,88.804  ,0
1249  ,0.5       ,0.5  ,88.774  ,0
1250  ,0.5       ,7.5  ,89.277  ,0
1251  ,0.5       ,7  ,89.277  ,0
1252  ,0.5       ,6.5  ,89.277  ,0
1253  ,0.5       ,6  ,89.277  ,0
1254  ,0.5       ,5.5  ,89.277  ,0
1255  ,0.5       ,5.0003  ,89.275  ,0
1256  ,0.5       ,4.4951  ,89.262  ,0
1257  ,0.5       ,3.9428  ,89.208  ,0
1258  ,0.5       ,3.4014  ,89.38  ,0
1259  ,0.5       ,2.9957  ,89.306  ,0
1260  ,0.5       ,2.4946  ,89.264  ,0
1261  ,0.5       ,1.9418  ,89.157  ,0
1262  ,0.5       ,1.4859  ,89.211  ,0
1263  ,0.5       ,0.99826  ,89.267  ,0
1264  ,0.5       ,0.5  ,89.277  ,0
1265  ,0.5       ,7.5  ,89.78  ,0
1266  ,0.5       ,7  ,89.78  ,0
1267  ,0.5       ,6.5  ,89.78  ,0
1268  ,0.5       ,6  ,89.78  ,0
1269  ,0.5       ,5.5  ,89.78  ,0
1270  ,0.5       ,5.0018  ,89.777  ,0
1271  ,0.5       ,4.5146  ,89.76  ,0
1272  ,0.5       ,4.0152  ,89.758  ,0
1273  ,0.5       ,3.4891  ,89.791  ,0
1274  ,0.5       ,2.9857  ,89.801  ,0
1275  ,0.5       ,2.5098  ,89.766  ,0
1276  ,0.5       ,2.0042  ,89.72  ,0
1277  ,0.5       ,1.4902  ,89.598  ,0
1278  ,0.5       ,0.99968  ,89.913  ,0
1279  ,0.5       ,0.5  ,89.78  ,0
1280  ,0.5       ,7.5  ,90.283  ,0
1281  ,0.5       ,7  ,90.283  ,0
1282  ,0.5       ,6.5  ,90.283  ,0
1283  ,0.5       ,6  ,90.283  ,0
1284  ,0.5       ,5.5  ,90.283  ,0
1285  ,0.5       ,5.0013  ,90.281  ,0
1286  ,0.5       ,4.5191  ,90.25  ,0
1287  ,0.5       ,4.121  ,90.162  ,0
1288  ,0.5       ,3.6009  ,90.318  ,0
1289  ,0.5       ,3.0261  ,90.287  ,0
1290  ,0.5       ,2.5171  ,90.253  ,0
1291  ,0.5       ,2.1046  ,90.145  ,0
1292  ,0.5       ,1.5126  ,90.246  ,0
1293  ,0.5       ,1.0026  ,90.306  ,0
1294  ,0.5       ,0.5  ,90.283  ,0
1295  ,0.5       ,7.5  ,90.786  ,0
1296  ,0.5       ,7  ,90.786  ,0
1297  ,0.5       ,6.5  ,90.786  ,0
1298  ,0.5       ,6  ,90.786  ,0
1299  ,0.5       ,5.5  ,90.786  ,0
1300  ,0.5       ,5  ,90.786  ,0
1301  ,0.5       ,4.5  ,90.786  ,0
1302  ,0.5       ,4.0354  ,90.648  ,0
1303  ,0.5       ,3.5  ,90.786  ,0
1304  ,0.5       ,3.1184  ,90.746  ,0
1305  ,0.5       ,2.5  ,90.786  ,0
1306  ,0.5       ,2.0198  ,90.636  ,0
1307  ,0.5       ,1.5  ,90.786  ,0
1308  ,0.5       ,1  ,90.786  ,0
1309  ,0.5       ,0.5  ,90.786  ,0
1310  ,0.7       ,6.4282  ,68.153  ,0
1311  ,0.7       ,5.9163  ,68.153  ,0
1312  ,0.7       ,5.4101  ,68.153  ,0
1313  ,0.7       ,4.9027  ,68.153  ,0
1314  ,0.7       ,4.3948  ,68.153  ,0
1315  ,0.7       ,3.8868  ,68.153  ,0
1316  ,0.7       ,3.3788  ,68.153  ,0
1317  ,0.7       ,2.8705  ,68.152  ,0
1318  ,0.7       ,2.3599  ,68.142  ,0
1319  ,0.7       ,1.8549  ,68.099  ,0
1320  ,0.7       ,1.4196  ,68.018  ,0
1321  ,0.7       ,0.94191  ,68.201  ,0
1322  ,0.7       ,0.49448  ,68.153  ,0
1323  ,0.7       ,6.2767  ,67.65  ,0
1324  ,0.7       ,5.7826  ,67.65  ,0
1325  ,0.7       ,5.2751  ,67.65  ,0
1326  ,0.7       ,4.7646  ,67.65  ,0
1327  ,0.7       ,4.2535  ,67.65  ,0
1328  ,0.7       ,3.7422  ,67.65  ,0
1329  ,0.7       ,3.2309  ,67.649  ,0
1330  ,0.7       ,2.7179  ,67.646  ,0
1331  ,0.7       ,2.1944  ,67.625  ,0
1332  ,0.7       ,1.6699  ,67.607  ,0
1333  ,0.7       ,1.1498  ,67.645  ,0
1334  ,0.7       ,0.52306  ,67.65  ,0
1335  ,0.7       ,6.1717  ,67.147  ,0
1336  ,0.7       ,5.6702  ,67.147  ,0
1337  ,0.7       ,5.1626  ,67.147  ,0
1338  ,0.7       ,4.6533  ,67.147  ,0
1339  ,0.7       ,4.1437  ,67.147  ,0
1340  ,0.7       ,3.6339  ,67.147  ,0
1341  ,0.7       ,3.123  ,67.145  ,0
1342  ,0.7       ,2.5984  ,67.128  ,0
1343  ,0.7       ,1.9892  ,67.042  ,0
1344  ,0.7       ,1.3797  ,67.16  ,0
1345  ,0.7       ,0.91707  ,67.273  ,0
1346  ,0.7       ,0.51431  ,67.147  ,0
1347  ,0.7       ,6.075  ,66.644  ,0
1348  ,0.7       ,5.5739  ,66.644  ,0
1349  ,0.7       ,5.07  ,66.644  ,0
1350  ,0.7       ,4.5653  ,66.644  ,0
1351  ,0.7       ,4.0604  ,66.644  ,0
1352  ,0.7       ,3.5552  ,66.643  ,0
1353  ,0.7       ,3.0462  ,66.637  ,0
1354  ,0.7       ,2.5214  ,66.594  ,0
1355  ,0.7       ,1.9978  ,66.421  ,0
1356  ,0.7       ,1.4782  ,66.64  ,0
1357  ,0.7       ,0.97036  ,66.848  ,0
1358  ,0.7       ,0.50625  ,66.644  ,0
1359  ,0.8       ,5.9864  ,66.141  ,0
1360  ,0.8       ,5.4895  ,66.141  ,0
1361  ,0.7       ,4.9908  ,66.141  ,0
1362  ,0.7       ,4.4914  ,66.141  ,0
1363  ,0.7       ,3.9919  ,66.141  ,0
1364  ,0.7       ,3.4916  ,66.139  ,0
1365  ,0.7       ,2.988  ,66.127  ,0
1366  ,0.7       ,2.4814  ,66.065  ,0
1367  ,0.7       ,1.9758  ,65.892  ,0
1368  ,0.7       ,1.4865  ,66.111  ,0
1369  ,0.7       ,0.98962  ,66.35  ,0
1370  ,0.7       ,0.49887  ,66.141  ,0
1371  ,0.8       ,5.906  ,65.638  ,0
1372  ,0.8       ,5.4118  ,65.638  ,0
1373  ,0.8       ,4.9144  ,65.638  ,0
1374  ,0.7       ,4.4171  ,65.638  ,0
1375  ,0.7       ,3.9195  ,65.637  ,0
1376  ,0.7       ,3.4213  ,65.635  ,0
1377  ,0.7       ,2.9219  ,65.618  ,0
1378  ,0.7       ,2.4222  ,65.554  ,0
1379  ,0.7       ,1.9334  ,65.392  ,0
1380  ,0.7       ,1.4678  ,65.589  ,0
1381  ,0.7       ,0.98003  ,65.829  ,0
1382  ,0.7       ,0.49217  ,65.638  ,0
1383  ,0.8       ,5.8337  ,65.135  ,0
1384  ,0.8       ,5.3269  ,65.135  ,0
1385  ,0.8       ,4.8269  ,65.135  ,0
1386  ,0.8       ,4.3254  ,65.135  ,0
1387  ,0.7       ,3.8233  ,65.134  ,0
1388  ,0.7       ,3.3208  ,65.13  ,0
1389  ,0.7       ,2.8171  ,65.112  ,0
1390  ,0.7       ,2.3119  ,65.05  ,0
1391  ,0.7       ,1.8728  ,64.954  ,0
1392  ,0.7       ,1.4726  ,65.087  ,0
1393  ,0.7       ,0.93156  ,65.229  ,0
1394  ,0.7       ,0.48614  ,65.135  ,0
1395  ,0.8       ,5.7293  ,64.632  ,0
1396  ,0.8       ,5.2401  ,64.632  ,0
1397  ,0.8       ,4.7359  ,64.632  ,0
1398  ,0.8       ,4.2281  ,64.632  ,0
1399  ,0.8       ,3.7194  ,64.631  ,0
1400  ,0.7       ,3.2094  ,64.626  ,0
1401  ,0.7       ,2.6869  ,64.599  ,0
1402  ,0.7       ,2.0864  ,64.497  ,0
1403  ,0.7       ,1.5194  ,64.613  ,0
1404  ,0.7       ,1.0948  ,64.761  ,0
1405  ,0.7       ,0.52085  ,64.632  ,0
1406  ,0.8       ,5.6734  ,64.129  ,0
1407  ,0.8       ,5.1731  ,64.129  ,0
1408  ,0.8       ,4.665  ,64.129  ,0
1409  ,0.8       ,4.1547  ,64.129  ,0
1410  ,0.8       ,3.6434  ,64.128  ,0
1411  ,0.8       ,3.1283  ,64.119  ,0
1412  ,0.7       ,2.5975  ,64.072  ,0
1413  ,0.7       ,2.0609  ,63.9  ,0
1414  ,0.7       ,1.5445  ,64.115  ,0
1415  ,0.7       ,1.0367  ,64.328  ,0
1416  ,0.7       ,0.51576  ,64.129  ,0
1417  ,0.9       ,5.6254  ,63.626  ,0
1418  ,0.8       ,5.1217  ,63.626  ,0
1419  ,0.8       ,4.6135  ,63.626  ,0
1420  ,0.8       ,4.1039  ,63.626  ,0
1421  ,0.8       ,3.593  ,63.624  ,0
1422  ,0.8       ,3.0788  ,63.61  ,0
1423  ,0.8       ,2.5603  ,63.548  ,0
1424  ,0.8       ,2.0413  ,63.376  ,0
1425  ,0.7       ,1.5359  ,63.596  ,0
1426  ,0.7       ,1.0269  ,63.834  ,0
1427  ,0.7       ,0.5114  ,63.626  ,0
1428  ,0.9       ,5.5852  ,63.123  ,0
1429  ,0.8       ,5.0821  ,63.123  ,0
1430  ,0.8       ,4.5757  ,63.123  ,0
1431  ,0.8       ,4.0682  ,63.122  ,0
1432  ,0.8       ,3.5597  ,63.119  ,0
1433  ,0.8       ,3.0498  ,63.103  ,0
1434  ,0.8       ,2.5387  ,63.038  ,0
1435  ,0.8       ,2.0263  ,62.868  ,0
1436  ,0.8       ,1.5236  ,63.084  ,0
1437  ,0.8       ,1.0188  ,63.327  ,0
1438  ,0.8       ,0.50775  ,63.123  ,0
1439  ,0.9       ,5.5529  ,62.62  ,0
1440  ,0.9       ,5.0517  ,62.62  ,0
1441  ,0.8       ,4.5477  ,62.62  ,0
1442  ,0.8       ,4.0426  ,62.619  ,0
1443  ,0.8       ,3.5369  ,62.615  ,0
1444  ,0.8       ,3.0307  ,62.598  ,0
1445  ,0.8       ,2.5237  ,62.533  ,0
1446  ,0.8       ,2.0149  ,62.361  ,0
1447  ,0.8       ,1.505  ,62.563  ,0
1448  ,0.8       ,1.0023  ,62.808  ,0
1449  ,0.8       ,0.50481  ,62.62  ,0
1450  ,0.9       ,5.5284  ,62.117  ,0
1451  ,0.9       ,5.0293  ,62.117  ,0
1452  ,0.8       ,4.5274  ,62.117  ,0
1453  ,0.8       ,4.0245  ,62.116  ,0
1454  ,0.8       ,3.5211  ,62.112  ,0
1455  ,0.8       ,3.0174  ,62.094  ,0
1456  ,0.8       ,2.5132  ,62.029  ,0
1457  ,0.8       ,2.0077  ,61.855  ,0
1458  ,0.8       ,1.4968  ,62.033  ,0
1459  ,0.8       ,0.93325  ,62.192  ,0
1460  ,0.8       ,0.50258  ,62.117  ,0
1461  ,0.9       ,5.5116  ,61.614  ,0
1462  ,0.9       ,5.0143  ,61.614  ,0
1463  ,0.9       ,4.5139  ,61.614  ,0
1464  ,0.8       ,4.0125  ,61.613  ,0
1465  ,0.8       ,3.5107  ,61.609  ,0
1466  ,0.8       ,3.0087  ,61.591  ,0
1467  ,0.8       ,2.5064  ,61.526  ,0
1468  ,0.8       ,2.0037  ,61.351  ,0
1469  ,0.8       ,1.5013  ,61.513  ,0
1470  ,0.8       ,0.99031  ,61.597  ,0
1471  ,0.8       ,0.50106  ,61.614  ,0
1472  ,0.9       ,5.5026  ,61.111  ,0
1473  ,0.9       ,5.0058  ,61.111  ,0
1474  ,0.9       ,4.5061  ,61.111  ,0
1475  ,0.8       ,4.0055  ,61.11  ,0
1476  ,0.8       ,3.5047  ,61.106  ,0
1477  ,0.8       ,3.0037  ,61.088  ,0
1478  ,0.8       ,2.5026  ,61.023  ,0
1479  ,0.8       ,2.0014  ,60.847  ,0
1480  ,0.8       ,1.5012  ,61.006  ,0
1481  ,0.8       ,0.99924  ,61.077  ,0
1482  ,0.8       ,0.50024  ,61.111  ,0
1483  ,0.9       ,5.5  ,60.608  ,0
1484  ,0.9       ,5.0021  ,60.608  ,0
1485  ,0.9       ,4.5023  ,60.608  ,0
1486  ,0.9       ,4.0021  ,60.607  ,0
1487  ,0.8       ,3.5018  ,60.603  ,0
1488  ,0.8       ,3.0014  ,60.585  ,0
1489  ,0.8       ,2.5009  ,60.52  ,0
1490  ,0.8       ,2.0005  ,60.344  ,0
1491  ,0.8       ,1.5006  ,60.502  ,0
1492  ,0.8       ,1.0002  ,60.571  ,0
1493  ,0.8       ,0.5  ,60.608  ,0
1494  ,0.9       ,5.5  ,60.105  ,0
1495  ,0.9       ,5.0007  ,60.105  ,0
1496  ,0.9       ,4.5008  ,60.105  ,0
1497  ,0.9       ,4.0007  ,60.104  ,0
1498  ,0.9       ,3.5006  ,60.1  ,0
1499  ,0.8       ,3.0005  ,60.082  ,0
1500  ,0.8       ,2.5003  ,60.017  ,0
1501  ,0.8       ,2.0001  ,59.841  ,0
1502  ,0.8       ,1.5002  ,59.999  ,0
1503  ,0.8       ,1.0001  ,60.068  ,0
1504  ,0.8       ,0.5  ,60.105  ,0
1505  ,0.9       ,5.5  ,59.602  ,0
1506  ,0.9       ,5.0002  ,59.602  ,0
1507  ,0.9       ,4.5003  ,59.602  ,0
1508  ,0.9       ,4.0002  ,59.601  ,0
1509  ,0.9       ,3.5002  ,59.597  ,0
1510  ,0.9       ,3.0001  ,59.579  ,0
1511  ,0.9       ,2.5001  ,59.514  ,0
1512  ,0.9       ,2  ,59.338  ,0
1513  ,0.8       ,1.5001  ,59.496  ,0
1514  ,0.8       ,1.0001  ,59.565  ,0
1515  ,0.8       ,0.5  ,59.602  ,0
1516  ,0.9       ,5.5  ,59.099  ,0
1517  ,0.9       ,5.0001  ,59.099  ,0
1518  ,0.9       ,4.5001  ,59.099  ,0
1519  ,0.9       ,4.0001  ,59.098  ,0
1520  ,0.9       ,3.5001  ,59.094  ,0
1521  ,0.9       ,3  ,59.076  ,0
1522  ,0.9       ,2.5  ,59.011  ,0
1523  ,0.9       ,2  ,58.835  ,0
1524  ,0.9       ,1.5  ,58.993  ,0
1525  ,0.9       ,1  ,59.062  ,0
1526  ,0.9       ,0.5  ,59.099  ,0
1527  ,0.9       ,5.5  ,58.596  ,0
1528  ,0.9       ,5  ,58.596  ,0
1529  ,0.9       ,4.5  ,58.596  ,0
1530  ,0.9       ,4  ,58.595  ,0
1531  ,0.9       ,3.5  ,58.591  ,0
1532  ,0.9       ,3  ,58.573  ,0
1533  ,0.9       ,2.5  ,58.508  ,0
1534  ,0.9       ,2  ,58.332  ,0
1535  ,0.9       ,1.5  ,58.49  ,0
1536  ,0.9       ,1  ,58.559  ,0
1537  ,0.9       ,0.5  ,58.596  ,0
1538  ,0.9       ,5.5  ,58.093  ,0
1539  ,0.9       ,5  ,58.093  ,0
1540  ,0.9       ,4.5  ,58.093  ,0
1541  ,0.9       ,4  ,58.092  ,0
1542  ,0.9       ,3.5  ,58.088  ,0
1543  ,0.9       ,3  ,58.07  ,0
1544  ,0.9       ,2.5  ,58.005  ,0
1545  ,0.9       ,2  ,57.829  ,0
1546  ,0.9       ,1.5  ,57.987  ,0
1547  ,0.9       ,1  ,58.056  ,0
1548  ,0.9       ,0.5  ,58.093  ,0
1549  ,0.9       ,5.5  ,57.59  ,0
1550  ,0.9       ,5  ,57.59  ,0
1551  ,0.9       ,4.5  ,57.59  ,0
1552  ,0.9       ,4  ,57.589  ,0
1553  ,0.9       ,3.5  ,57.585  ,0
1554  ,0.9       ,3  ,57.567  ,0
1555  ,0.9       ,2.5  ,57.502  ,0
1556  ,0.9       ,2  ,57.327  ,0
1557  ,0.9       ,1.5  ,57.484  ,0
1558  ,0.9       ,1  ,57.553  ,0
1559  ,0.9       ,0.5  ,57.59  ,0
1560  ,0.9       ,5.5  ,57.087  ,0
1561  ,0.9       ,5  ,57.087  ,0
1562  ,0.9       ,4.5  ,57.087  ,0
1563  ,0.9       ,4  ,57.086  ,0
1564  ,0.9       ,3.5  ,57.082  ,0
1565  ,0.9       ,3  ,57.064  ,0
1566  ,0.9       ,2.5  ,56.999  ,0
1567  ,0.9       ,2  ,56.824  ,0
1568  ,0.9       ,1.5  ,56.981  ,0
1569  ,0.9       ,1  ,57.05  ,0
1570  ,0.9       ,0.5  ,57.087  ,0
1571  ,0.9       ,5.5  ,56.584  ,0
1572  ,0.9       ,5  ,56.584  ,0
1573  ,0.9       ,4.5  ,56.584  ,0
1574  ,0.9       ,4  ,56.583  ,0
1575  ,0.9       ,3.5  ,56.579  ,0
1576  ,0.9       ,3  ,56.561  ,0
1577  ,0.9       ,2.5  ,56.496  ,0
1578  ,0.9       ,2  ,56.321  ,0
1579  ,0.9       ,1.5  ,56.478  ,0
1580  ,0.9       ,1  ,56.547  ,0
1581  ,0.9       ,0.5  ,56.584  ,0
1582  ,0.9       ,5.5  ,56.081  ,0
1583  ,0.9       ,5  ,56.081  ,0
1584  ,0.9       ,4.5  ,56.081  ,0
1585  ,0.9       ,4  ,56.08  ,0
1586  ,0.9       ,3.5  ,56.076  ,0
1587  ,0.9       ,3  ,56.058  ,0
1588  ,0.9       ,2.5  ,55.993  ,0
1589  ,0.9       ,2  ,55.818  ,0
1590  ,0.9       ,1.5  ,55.975  ,0
1591  ,0.9       ,1  ,56.044  ,0
1592  ,0.9       ,0.5  ,56.081  ,0
1593  ,0.9       ,5.5  ,55.578  ,0
1594  ,0.9       ,5  ,55.578  ,0
1595  ,0.9       ,4.5  ,55.578  ,0
1596  ,0.9       ,4  ,55.577  ,0
1597  ,0.9       ,3.5  ,55.573  ,0
1598  ,0.9       ,3  ,55.555  ,0
1599  ,0.9       ,2.5  ,55.49  ,0
1600  ,0.9       ,2  ,55.315  ,0
1601  ,0.9       ,1.5  ,55.472  ,0
1602  ,1.0       ,1  ,55.541  ,0
1603  ,1.0       ,0.5  ,55.578  ,0
1604  ,0.9       ,5.5  ,55.075  ,0
1605  ,0.9       ,5  ,55.075  ,0
1606  ,0.9       ,4.5  ,55.075  ,0
1607  ,0.9       ,4  ,55.074  ,0
1608  ,0.9       ,3.5  ,55.07  ,0
1609  ,0.9       ,3  ,55.052  ,0
1610  ,0.9       ,2.5  ,54.987  ,0
1611  ,1.0       ,2  ,54.812  ,0
1612  ,1.0       ,1.5  ,54.969  ,0
1613  ,1.0       ,1  ,55.038  ,0
1614  ,1.0       ,0.5  ,55.075  ,0
1615  ,0.9       ,5.5  ,54.572  ,0
1616  ,0.9       ,5  ,54.572  ,0
1617  ,0.9       ,4.5  ,54.572  ,0
1618  ,0.9       ,4  ,54.571  ,0
1619  ,0.9       ,3.5  ,54.567  ,0
1620  ,0.9       ,3  ,54.549  ,0
1621  ,1.0       ,2.5  ,54.484  ,0
1622  ,1.0       ,2  ,54.309  ,0
1623  ,1.0       ,1.5  ,54.466  ,0
1624  ,1.0       ,1  ,54.535  ,0
1625  ,1.0       ,0.5  ,54.572  ,0
1626  ,0.9       ,5.5  ,54.069  ,0
1627  ,0.9       ,5  ,54.069  ,0
1628  ,0.9       ,4.5  ,54.069  ,0
1629  ,0.9       ,4  ,54.068  ,0
1630  ,0.9       ,3.5  ,54.064  ,0
1631  ,1.0       ,3  ,54.046  ,0
1632  ,1.0       ,2.5  ,53.981  ,0
1633  ,1.0       ,2  ,53.806  ,0
1634  ,1.0       ,1.5  ,53.963  ,0
1635  ,1.0       ,1  ,54.032  ,0
1636  ,1.0       ,0.5  ,54.069  ,0
1637  ,0.8       ,5.5  ,53.566  ,0
1638  ,0.9       ,5  ,53.566  ,0
1639  ,0.9       ,4.5  ,53.566  ,0
1640  ,0.9       ,4  ,53.565  ,0
1641  ,1.0       ,3.5  ,53.561  ,0
1642  ,1.0       ,3  ,53.543  ,0
1643  ,1.0       ,2.5  ,53.478  ,0
1644  ,1.1       ,2  ,53.303  ,0
1645  ,1.1       ,1.5  ,53.46  ,0
1646  ,1.1       ,1  ,53.529  ,0
1647  ,1.1       ,0.5  ,53.566  ,0
1648  ,0.8       ,5.5  ,53.063  ,0
1649  ,0.9       ,5  ,53.063  ,0
1650  ,0.9       ,4.5  ,53.063  ,0
1651  ,0.9       ,4  ,53.062  ,0
1652  ,1.0       ,3.5  ,53.058  ,0
1653  ,1.0       ,3  ,53.04  ,0
1654  ,1.1       ,2.5  ,52.975  ,0
1655  ,1.1       ,2  ,52.8  ,0
1656  ,1.1       ,1.5  ,52.957  ,0
1657  ,1.1       ,1  ,53.026  ,0
1658  ,1.1       ,0.5  ,53.063  ,0
1659  ,0.8       ,5.5  ,52.56  ,0
1660  ,0.8       ,5  ,52.56  ,0
1661  ,0.9       ,4.5  ,52.56  ,0
1662  ,1.0       ,4  ,52.559  ,0
1663  ,1.0       ,3.5  ,52.555  ,0
1664  ,1.1       ,3  ,52.537  ,0
1665  ,1.1       ,2.5  ,52.472  ,0
1666  ,1.2       ,2  ,52.297  ,0
1667  ,1.2       ,1.5  ,52.454  ,0
1668  ,1.2       ,1  ,52.523  ,0
1669  ,1.2       ,0.5  ,52.56  ,0
1670  ,0.8       ,5.5  ,52.057  ,0
1671  ,0.8       ,5  ,52.057  ,0
1672  ,0.9       ,4.5  ,52.057  ,0
1673  ,1.0       ,4  ,52.056  ,0
1674  ,1.0       ,3.5  ,52.052  ,0
1675  ,1.1       ,3  ,52.034  ,0
1676  ,1.2       ,2.5  ,51.969  ,0
1677  ,1.2       ,2  ,51.794  ,0
1678  ,1.2       ,1.5  ,51.951  ,0
1679  ,1.2       ,1  ,52.02  ,0
1680  ,1.3       ,0.5  ,52.057  ,0
1681  ,0.8       ,5.5  ,51.554  ,0
1682  ,0.8       ,4.999  ,51.553  ,0
1683  ,0.9       ,4.4969  ,51.552  ,0
1684  ,1.0       ,3.9963  ,51.553  ,0
1685  ,1.1       ,3.498  ,51.55  ,0
1686  ,1.2       ,2.9995  ,51.532  ,0
1687  ,1.2       ,2.4999  ,51.466  ,0
1688  ,1.3       ,2  ,51.291  ,0
1689  ,1.3       ,1.5  ,51.449  ,0
1690  ,1.3       ,1  ,51.517  ,0
1691  ,1.3       ,0.5  ,51.554  ,0
1692  ,0.7       ,5.5  ,51.052  ,0
1693  ,0.8       ,4.9807  ,51.033  ,0
1694  ,0.9       ,4.4626  ,51.042  ,0
1695  ,1.0       ,3.9751  ,51.061  ,0
1696  ,1.1       ,3.492  ,51.049  ,0
1697  ,1.2       ,2.996  ,51.028  ,0
1698  ,1.3       ,2.4968  ,50.963  ,0
1699  ,1.3       ,1.9982  ,50.789  ,0
1700  ,1.4       ,1.4998  ,50.946  ,0
1701  ,1.4       ,0.99997  ,51.014  ,0
1702  ,1.4       ,0.5  ,51.052  ,0
1703  ,0.7       ,5.5  ,50.549  ,0
1704  ,0.9       ,4.8467  ,50.414  ,0
1705  ,1.0       ,4.3526  ,50.629  ,0
1706  ,1.1       ,3.9567  ,50.565  ,0
1707  ,1.2       ,3.4738  ,50.531  ,0
1708  ,1.3       ,2.9701  ,50.52  ,0
1709  ,1.3       ,2.4779  ,50.471  ,0
1710  ,1.4       ,1.9924  ,50.29  ,0
1711  ,1.4       ,1.4986  ,50.443  ,0
1712  ,1.4       ,0.99978  ,50.512  ,0
1713  ,1.4       ,0.5  ,50.549  ,0
1714  ,1.0       ,4.4092  ,50.081  ,0
1715  ,1.2       ,3.9242  ,50.032  ,0
1716  ,1.3       ,3.3989  ,49.928  ,0
1717  ,1.3       ,2.8716  ,50.091  ,0
1718  ,1.4       ,2.46  ,49.977  ,0
1719  ,1.5       ,1.9768  ,49.798  ,0
1720  ,1.5       ,1.4951  ,49.943  ,0
1721  ,1.5       ,0.99909  ,50.009  ,0
1722  ,1.5       ,0.5  ,50.046  ,0
1723  ,1.4       ,2.9631  ,49.486  ,0
1724  ,1.5       ,2.3859  ,49.531  ,0
1725  ,1.5       ,1.9663  ,49.298  ,0
1726  ,1.5       ,1.4891  ,49.444  ,0
1727  ,1.5       ,0.99749  ,49.507  ,0
1728  ,1.5       ,0.5  ,49.543  ,0
1729  ,1.5       ,2.5064  ,48.922  ,0
1730  ,1.5       ,1.9059  ,48.84  ,0
1731  ,1.5       ,1.4794  ,48.951  ,0
1732  ,1.5       ,0.99549  ,49.007  ,0
1733  ,1.5       ,0.5  ,49.04  ,0
1734  ,1.5       ,2.0574  ,48.352  ,0
1735  ,1.5       ,1.5086  ,48.459  ,0
1736  ,1.5       ,1.0062  ,48.511  ,0
1737  ,1.4       ,0.5  ,48.537  ,0
1738  ,1.5       ,1.9866  ,47.9  ,0
1739  ,1.4       ,1.5729  ,47.924  ,0
1740  ,1.4       ,1.0765  ,48.031  ,0
1741  ,1.4       ,0.5  ,48.034  ,0
1742  ,1.4       ,0.78826  ,48.032  ,0
1743  ,1.4       ,1.3247  ,47.978  ,0
1744  ,1.4       ,1.7798  ,47.912  ,0
1745  ,1.4       ,0.5  ,48.285  ,0
1746  ,1.4       ,0.75308  ,48.272  ,0
1747  ,1.4       ,1.0413  ,48.271  ,0
1748  ,1.5       ,0.75308  ,48.524  ,0
1749  ,1.4       ,1.2925  ,48.245  ,0
1750  ,1.4       ,1.5407  ,48.192  ,0
1751  ,1.5       ,1.2574  ,48.485  ,0
1752  ,1.5       ,1.8151  ,48.138  ,0
1753  ,1.5       ,2.022  ,48.126  ,0
1754  ,1.5       ,1.783  ,48.406  ,0
1755  ,1.5       ,0.5  ,48.788  ,0
1756  ,1.5       ,0.74775  ,48.772  ,0
1757  ,1.5       ,1.0008  ,48.759  ,0
1758  ,1.5       ,0.74775  ,49.023  ,0
1759  ,1.5       ,1.2428  ,48.731  ,0
1760  ,1.5       ,1.494  ,48.705  ,0
1761  ,1.5       ,1.2374  ,48.979  ,0
1762  ,1.5       ,1.7072  ,48.65  ,0
1763  ,1.5       ,1.9816  ,48.596  ,0
1764  ,1.5       ,1.6926  ,48.896  ,0
1765  ,1.5       ,2.2819  ,48.637  ,0
1766  ,1.5       ,2.2061  ,48.881  ,0
1767  ,1.5       ,0.5  ,49.291  ,0
1768  ,1.5       ,0.74875  ,49.273  ,0
1769  ,1.5       ,0.99649  ,49.257  ,0
1770  ,1.5       ,0.74875  ,49.525  ,0
1771  ,1.5       ,1.2423  ,49.225  ,0
1772  ,1.5       ,1.4842  ,49.197  ,0
1773  ,1.5       ,1.2433  ,49.475  ,0
1774  ,1.5       ,1.7229  ,49.125  ,0
1775  ,1.5       ,1.9361  ,49.069  ,0
1776  ,1.5       ,2.2364  ,49.11  ,0
1777  ,1.5       ,1.7277  ,49.371  ,0
1778  ,1.5       ,2.4462  ,49.226  ,0
1779  ,1.5       ,2.1761  ,49.415  ,0
1780  ,1.5       ,2.7347  ,49.204  ,0
1781  ,1.4       ,2.6745  ,49.508  ,0
1782  ,1.5       ,0.5  ,49.794  ,0
1783  ,1.5       ,0.74955  ,49.776  ,0
1784  ,1.5       ,0.99829  ,49.758  ,0
1785  ,1.5       ,0.74955  ,50.027  ,0
1786  ,1.5       ,1.2463  ,49.725  ,0
1787  ,1.5       ,1.4921  ,49.693  ,0
1788  ,1.5       ,1.2471  ,49.976  ,0
1789  ,1.5       ,1.7329  ,49.621  ,0
1790  ,1.5       ,1.9716  ,49.548  ,0
1791  ,1.5       ,2.1814  ,49.665  ,0
1792  ,1.5       ,1.7359  ,49.871  ,0
1793  ,1.4       ,2.423  ,49.754  ,0
1794  ,1.4       ,2.7116  ,49.731  ,0
1795  ,1.4       ,2.2184  ,49.888  ,0
1796  ,1.4       ,2.9173  ,49.788  ,0
1797  ,1.4       ,2.6658  ,50.034  ,0
1798  ,1.3       ,3.181  ,49.707  ,0
1799  ,1.3       ,3.1352  ,50.01  ,0
1800  ,1.2       ,3.6615  ,49.98  ,0
1801  ,1.1       ,4.1667  ,50.056  ,0
1802  ,1.5       ,0.5  ,50.297  ,0
1803  ,1.4       ,0.7499  ,50.279  ,0
1804  ,1.4       ,0.99944  ,50.26  ,0
1805  ,1.4       ,0.7499  ,50.53  ,0
1806  ,1.4       ,1.2489  ,50.226  ,0
1807  ,1.4       ,1.4969  ,50.193  ,0
1808  ,1.4       ,1.2492  ,50.477  ,0
1809  ,1.4       ,1.7438  ,50.116  ,0
1810  ,1.4       ,1.9846  ,50.044  ,0
1811  ,1.4       ,2.2262  ,50.133  ,0
1812  ,1.4       ,1.7455  ,50.367  ,0
1813  ,1.4       ,2.469  ,50.224  ,0
1814  ,1.3       ,2.6748  ,50.281  ,0
1815  ,1.4       ,2.2352  ,50.38  ,0
1816  ,1.3       ,2.9208  ,50.306  ,0
1817  ,1.3       ,3.1845  ,50.224  ,0
1818  ,1.3       ,2.724  ,50.495  ,0
1819  ,1.2       ,3.4364  ,50.229  ,0
1820  ,1.2       ,3.699  ,50.281  ,0
1821  ,1.2       ,3.2219  ,50.525  ,0
1822  ,1.1       ,3.9405  ,50.299  ,0
1823  ,1.0       ,4.1829  ,50.323  ,0
1824  ,1.1       ,3.7153  ,50.548  ,0
1825  ,1.0       ,4.3809  ,50.355  ,0
1826  ,1.0       ,4.1547  ,50.597  ,0
1827  ,0.9       ,4.6279  ,50.248  ,0
1828  ,0.9       ,4.5996  ,50.521  ,0
1829  ,0.8       ,5.1734  ,50.481  ,0
1830  ,1.4       ,0.5  ,50.8  ,0
1831  ,1.4       ,0.74998  ,50.781  ,0
1832  ,1.4       ,0.99988  ,50.763  ,0
1833  ,1.4       ,0.74998  ,51.033  ,0
1834  ,1.4       ,1.2498  ,50.729  ,0
1835  ,1.4       ,1.4992  ,50.695  ,0
1836  ,1.4       ,1.2499  ,50.98  ,0
1837  ,1.4       ,1.7484  ,50.616  ,0
1838  ,1.4       ,1.9953  ,50.539  ,0
1839  ,1.3       ,2.238  ,50.63  ,0
1840  ,1.4       ,1.749  ,50.867  ,0
1841  ,1.3       ,2.4873  ,50.717  ,0
1842  ,1.3       ,2.7334  ,50.742  ,0
1843  ,1.3       ,2.2475  ,50.876  ,0
1844  ,1.2       ,2.9831  ,50.774  ,0
1845  ,1.2       ,3.2349  ,50.779  ,0
1846  ,1.2       ,2.7464  ,50.996  ,0
1847  ,1.2       ,3.4829  ,50.79  ,0
1848  ,1.1       ,3.7244  ,50.807  ,0
1849  ,1.2       ,3.244  ,51.038  ,0
1850  ,1.1       ,3.9659  ,50.813  ,0
1851  ,1.0       ,4.1638  ,50.845  ,0
1852  ,1.1       ,3.7336  ,51.055  ,0
1853  ,1.0       ,4.4076  ,50.835  ,0
1854  ,0.9       ,4.6547  ,50.728  ,0
1855  ,1.0       ,4.2188  ,51.052  ,0
1856  ,0.8       ,4.9137  ,50.724  ,0
1857  ,0.8       ,5.2404  ,50.791  ,0
1858  ,0.9       ,4.7217  ,51.037  ,0
1859  ,0.7       ,5.5  ,50.8  ,0
1860  ,0.8       ,5.2404  ,51.042  ,0
1861  ,1.3       ,0.5  ,51.303  ,0
1862  ,1.3       ,0.75  ,51.284  ,0
1863  ,1.3       ,0.99998  ,51.266  ,0
1864  ,1.3       ,0.75  ,51.536  ,0
1865  ,1.3       ,1.25  ,51.231  ,0
1866  ,1.3       ,1.4999  ,51.197  ,0
1867  ,1.3       ,1.25  ,51.483  ,0
1868  ,1.3       ,1.7499  ,51.118  ,0
1869  ,1.3       ,1.9991  ,51.04  ,0
1870  ,1.3       ,2.2484  ,51.127  ,0
1871  ,1.3       ,1.75  ,51.37  ,0
1872  ,1.2       ,2.4983  ,51.215  ,0
1873  ,1.2       ,2.748  ,51.247  ,0
1874  ,1.2       ,2.2499  ,51.378  ,0
1875  ,1.2       ,2.9978  ,51.28  ,0
1876  ,1.1       ,3.2458  ,51.29  ,0
1877  ,1.2       ,2.7497  ,51.499  ,0
1878  ,1.1       ,3.495  ,51.3  ,0
1879  ,1.1       ,3.7366  ,51.306  ,0
1880  ,1.1       ,3.2488  ,51.541  ,0
1881  ,1.0       ,3.9857  ,51.307  ,0
1882  ,1.0       ,4.2295  ,51.297  ,0
1883  ,1.0       ,3.7472  ,51.552  ,0
1884  ,0.9       ,4.4797  ,51.297  ,0
1885  ,0.9       ,4.7388  ,51.293  ,0
1886  ,1.0       ,4.2466  ,51.553  ,0
1887  ,0.8       ,4.9899  ,51.293  ,0
1888  ,0.8       ,5.2495  ,51.302  ,0
1889  ,0.9       ,4.7479  ,51.553  ,0
1890  ,0.7       ,5.5  ,51.303  ,0
1891  ,0.8       ,5.2495  ,51.554  ,0
1892  ,1.3       ,0.5  ,51.806  ,0
1893  ,1.3       ,0.75  ,51.787  ,0
1894  ,1.3       ,1  ,51.769  ,0
1895  ,1.2       ,0.75  ,52.039  ,0
1896  ,1.3       ,1.25  ,51.734  ,0
1897  ,1.3       ,1.5  ,51.7  ,0
1898  ,1.2       ,1.25  ,51.986  ,0
1899  ,1.3       ,1.75  ,51.621  ,0
1900  ,1.2       ,2  ,51.542  ,0
1901  ,1.2       ,2.25  ,51.63  ,0
1902  ,1.2       ,1.75  ,51.873  ,0
1903  ,1.2       ,2.4999  ,51.718  ,0
1904  ,1.2       ,2.7497  ,51.75  ,0
1905  ,1.2       ,2.25  ,51.881  ,0
1906  ,1.1       ,2.9997  ,51.783  ,0
1907  ,1.1       ,3.249  ,51.792  ,0
1908  ,1.1       ,2.75  ,52.002  ,0
1909  ,1.1       ,3.499  ,51.801  ,0
1910  ,1.0       ,3.7482  ,51.803  ,0
1911  ,1.1       ,3.25  ,52.043  ,0
1912  ,1.0       ,3.9982  ,51.805  ,0
1913  ,0.9       ,4.2484  ,51.804  ,0
1914  ,1.0       ,3.75  ,52.054  ,0
1915  ,0.9       ,4.4984  ,51.805  ,0
1916  ,0.9       ,4.7495  ,51.805  ,0
1917  ,0.9       ,4.25  ,52.057  ,0
1918  ,0.8       ,4.9995  ,51.805  ,0
1919  ,0.8       ,5.25  ,51.806  ,0
1920  ,0.9       ,4.75  ,52.057  ,0
1921  ,0.8       ,5.5  ,51.806  ,0
1922  ,0.8       ,5.25  ,52.057  ,0
1923  ,1.2       ,0.5  ,52.309  ,0
1924  ,1.2       ,0.75  ,52.29  ,0
1925  ,1.2       ,1  ,52.272  ,0
1926  ,1.2       ,0.75  ,52.542  ,0
1927  ,1.2       ,1.25  ,52.237  ,0
1928  ,1.2       ,1.5  ,52.203  ,0
1929  ,1.2       ,1.25  ,52.489  ,0
1930  ,1.2       ,1.75  ,52.124  ,0
1931  ,1.2       ,2  ,52.045  ,0
1932  ,1.2       ,2.25  ,52.133  ,0
1933  ,1.2       ,1.75  ,52.376  ,0
1934  ,1.1       ,2.5  ,52.22  ,0
1935  ,1.1       ,2.75  ,52.253  ,0
1936  ,1.1       ,2.25  ,52.384  ,0
1937  ,1.1       ,3  ,52.286  ,0
1938  ,1.0       ,3.25  ,52.295  ,0
1939  ,1.1       ,2.75  ,52.505  ,0
1940  ,1.0       ,3.5  ,52.304  ,0
1941  ,1.0       ,3.75  ,52.306  ,0
1942  ,1.0       ,3.25  ,52.546  ,0
1943  ,1.0       ,4  ,52.308  ,0
1944  ,0.9       ,4.25  ,52.308  ,0
1945  ,1.0       ,3.75  ,52.557  ,0
1946  ,0.9       ,4.5  ,52.309  ,0
1947  ,0.9       ,4.75  ,52.309  ,0
1948  ,0.9       ,4.25  ,52.56  ,0
1949  ,0.8       ,5  ,52.309  ,0
1950  ,0.8       ,5.25  ,52.309  ,0
1951  ,0.9       ,4.75  ,52.56  ,0
1952  ,0.8       ,5.5  ,52.309  ,0
1953  ,0.8       ,5.25  ,52.56  ,0
1954  ,1.2       ,0.5  ,52.812  ,0
1955  ,1.2       ,0.75  ,52.793  ,0
1956  ,1.2       ,1  ,52.775  ,0
1957  ,1.1       ,0.75  ,53.045  ,0
1958  ,1.2       ,1.25  ,52.74  ,0
1959  ,1.1       ,1.5  ,52.706  ,0
1960  ,1.1       ,1.25  ,52.992  ,0
1961  ,1.1       ,1.75  ,52.627  ,0
1962  ,1.1       ,2  ,52.548  ,0
1963  ,1.1       ,2.25  ,52.636  ,0
1964  ,1.1       ,1.75  ,52.879  ,0
1965  ,1.1       ,2.5  ,52.723  ,0
1966  ,1.1       ,2.75  ,52.756  ,0
1967  ,1.1       ,2.25  ,52.887  ,0
1968  ,1.0       ,3  ,52.789  ,0
1969  ,1.0       ,3.25  ,52.798  ,0
1970  ,1.0       ,2.75  ,53.008  ,0
1971  ,1.0       ,3.5  ,52.807  ,0
1972  ,1.0       ,3.75  ,52.809  ,0
1973  ,1.0       ,3.25  ,53.049  ,0
1974  ,0.9       ,4  ,52.811  ,0
1975  ,0.9       ,4.25  ,52.811  ,0
1976  ,1.0       ,3.75  ,53.06  ,0
1977  ,0.9       ,4.5  ,52.812  ,0
1978  ,0.9       ,4.75  ,52.812  ,0
1979  ,0.9       ,4.25  ,53.063  ,0
1980  ,0.9       ,5  ,52.812  ,0
1981  ,0.8       ,5.25  ,52.812  ,0
1982  ,0.9       ,4.75  ,53.063  ,0
1983  ,0.8       ,5.5  ,52.812  ,0
1984  ,0.8       ,5.25  ,53.063  ,0
1985  ,1.1       ,0.5  ,53.315  ,0
1986  ,1.1       ,0.75  ,53.296  ,0
1987  ,1.1       ,1  ,53.278  ,0
1988  ,1.1       ,0.75  ,53.548  ,0
1989  ,1.1       ,1.25  ,53.243  ,0
1990  ,1.1       ,1.5  ,53.209  ,0
1991  ,1.1       ,1.25  ,53.495  ,0
1992  ,1.1       ,1.75  ,53.13  ,0
1993  ,1.1       ,2  ,53.051  ,0
1994  ,1.1       ,2.25  ,53.139  ,0
1995  ,1.1       ,1.75  ,53.382  ,0
1996  ,1.0       ,2.5  ,53.226  ,0
1997  ,1.0       ,2.75  ,53.259  ,0
1998  ,1.0       ,2.25  ,53.39  ,0
1999  ,1.0       ,3  ,53.292  ,0
2000  ,1.0       ,3.25  ,53.301  ,0
2001  ,1.0       ,2.75  ,53.511  ,0
2002  ,1.0       ,3.5  ,53.31  ,0
2003  ,0.9       ,3.75  ,53.312  ,0
2004  ,1.0       ,3.25  ,53.552  ,0
2005  ,0.9       ,4  ,53.314  ,0
2006  ,0.9       ,4.25  ,53.314  ,0
2007  ,0.9       ,3.75  ,53.563  ,0
2008  ,0.9       ,4.5  ,53.315  ,0
2009  ,0.9       ,4.75  ,53.315  ,0
2010  ,0.9       ,4.25  ,53.566  ,0
2011  ,0.9       ,5  ,53.315  ,0
2012  ,0.8       ,5.25  ,53.315  ,0
2013  ,0.9       ,4.75  ,53.566  ,0
2014  ,0.8       ,5.5  ,53.315  ,0
2015  ,0.9       ,5.25  ,53.566  ,0
2016  ,1.1       ,0.5  ,53.818  ,0
2017  ,1.1       ,0.75  ,53.799  ,0
2018  ,1.1       ,1  ,53.781  ,0
2019  ,1.0       ,0.75  ,54.051  ,0
2020  ,1.1       ,1.25  ,53.746  ,0
2021  ,1.1       ,1.5  ,53.712  ,0
2022  ,1.0       ,1.25  ,53.998  ,0
2023  ,1.0       ,1.75  ,53.633  ,0
2024  ,1.0       ,2  ,53.554  ,0
2025  ,1.0       ,2.25  ,53.642  ,0
2026  ,1.0       ,1.75  ,53.885  ,0
2027  ,1.0       ,2.5  ,53.729  ,0
2028  ,1.0       ,2.75  ,53.762  ,0
2029  ,1.0       ,2.25  ,53.893  ,0
2030  ,1.0       ,3  ,53.795  ,0
2031  ,1.0       ,3.25  ,53.804  ,0
2032  ,1.0       ,2.75  ,54.014  ,0
2033  ,0.9       ,3.5  ,53.813  ,0
2034  ,0.9       ,3.75  ,53.815  ,0
2035  ,0.9       ,3.25  ,54.055  ,0
2036  ,0.9       ,4  ,53.817  ,0
2037  ,0.9       ,4.25  ,53.817  ,0
2038  ,0.9       ,3.75  ,54.066  ,0
2039  ,0.9       ,4.5  ,53.818  ,0
2040  ,0.9       ,4.75  ,53.818  ,0
2041  ,0.9       ,4.25  ,54.069  ,0
2042  ,0.9       ,5  ,53.818  ,0
2043  ,0.9       ,5.25  ,53.818  ,0
2044  ,0.9       ,4.75  ,54.069  ,0
2045  ,0.9       ,5.5  ,53.818  ,0
2046  ,0.9       ,5.25  ,54.069  ,0
2047  ,1.0       ,0.5  ,54.321  ,0
2048  ,1.0       ,0.75  ,54.302  ,0
2049  ,1.0       ,1  ,54.284  ,0
2050  ,1.0       ,0.75  ,54.554  ,0
2051  ,1.0       ,1.25  ,54.249  ,0
2052  ,1.0       ,1.5  ,54.215  ,0
2053  ,1.0       ,1.25  ,54.501  ,0
2054  ,1.0       ,1.75  ,54.136  ,0
2055  ,1.0       ,2  ,54.057  ,0
2056  ,1.0       ,2.25  ,54.145  ,0
2057  ,1.0       ,1.75  ,54.388  ,0
2058  ,1.0       ,2.5  ,54.232  ,0
2059  ,1.0       ,2.75  ,54.265  ,0
2060  ,1.0       ,2.25  ,54.396  ,0
2061  ,1.0       ,3  ,54.298  ,0
2062  ,0.9       ,3.25  ,54.307  ,0
2063  ,1.0       ,2.75  ,54.516  ,0
2064  ,0.9       ,3.5  ,54.316  ,0
2065  ,0.9       ,3.75  ,54.318  ,0
2066  ,0.9       ,3.25  ,54.558  ,0
2067  ,0.9       ,4  ,54.32  ,0
2068  ,0.9       ,4.25  ,54.32  ,0
2069  ,0.9       ,3.75  ,54.569  ,0
2070  ,0.9       ,4.5  ,54.321  ,0
2071  ,0.9       ,4.75  ,54.321  ,0
2072  ,0.9       ,4.25  ,54.572  ,0
2073  ,0.9       ,5  ,54.321  ,0
2074  ,0.9       ,5.25  ,54.321  ,0
2075  ,0.9       ,4.75  ,54.572  ,0
2076  ,0.9       ,5.5  ,54.321  ,0
2077  ,0.9       ,5.25  ,54.572  ,0
2078  ,1.0       ,0.5  ,54.824  ,0
2079  ,1.0       ,0.75  ,54.805  ,0
2080  ,1.0       ,1  ,54.787  ,0
2081  ,1.0       ,0.75  ,55.057  ,0
2082  ,1.0       ,1.25  ,54.752  ,0
2083  ,1.0       ,1.5  ,54.718  ,0
2084  ,1.0       ,1.25  ,55.004  ,0
2085  ,1.0       ,1.75  ,54.639  ,0
2086  ,1.0       ,2  ,54.56  ,0
2087  ,1.0       ,2.25  ,54.648  ,0
2088  ,1.0       ,1.75  ,54.89  ,0
2089  ,1.0       ,2.5  ,54.735  ,0
2090  ,0.9       ,2.75  ,54.768  ,0
2091  ,1.0       ,2.25  ,54.899  ,0
2092  ,0.9       ,3  ,54.801  ,0
2093  ,0.9       ,3.25  ,54.81  ,0
2094  ,0.9       ,2.75  ,55.019  ,0
2095  ,0.9       ,3.5  ,54.819  ,0
2096  ,0.9       ,3.75  ,54.821  ,0
2097  ,0.9       ,3.25  ,55.061  ,0
2098  ,0.9       ,4  ,54.823  ,0
2099  ,0.9       ,4.25  ,54.823  ,0
2100  ,0.9       ,3.75  ,55.072  ,0
2101  ,0.9       ,4.5  ,54.824  ,0
2102  ,0.9       ,4.75  ,54.824  ,0
2103  ,0.9       ,4.25  ,55.075  ,0
2104  ,0.9       ,5  ,54.824  ,0
2105  ,0.9       ,5.25  ,54.824  ,0
2106  ,0.9       ,4.75  ,55.075  ,0
2107  ,0.9       ,5.5  ,54.824  ,0
2108  ,0.9       ,5.25  ,55.075  ,0
2109  ,1.0       ,0.5  ,55.327  ,0
2110  ,1.0       ,0.75  ,55.308  ,0
2111  ,1.0       ,1  ,55.29  ,0
2112  ,1.0       ,0.75  ,55.56  ,0
2113  ,1.0       ,1.25  ,55.255  ,0
2114  ,1.0       ,1.5  ,55.221  ,0
2115  ,0.9       ,1.25  ,55.507  ,0
2116  ,1.0       ,1.75  ,55.142  ,0
2117  ,1.0       ,2  ,55.063  ,0
2118  ,0.9       ,2.25  ,55.151  ,0
2119  ,0.9       ,1.75  ,55.393  ,0
2120  ,0.9       ,2.5  ,55.238  ,0
2121  ,0.9       ,2.75  ,55.271  ,0
2122  ,0.9       ,2.25  ,55.402  ,0
2123  ,0.9       ,3  ,55.304  ,0
2124  ,0.9       ,3.25  ,55.313  ,0
2125  ,0.9       ,2.75  ,55.522  ,0
2126  ,0.9       ,3.5  ,55.322  ,0
2127  ,0.9       ,3.75  ,55.324  ,0
2128  ,0.9       ,3.25  ,55.564  ,0
2129  ,0.9       ,4  ,55.326  ,0
2130  ,0.9       ,4.25  ,55.326  ,0
2131  ,0.9       ,3.75  ,55.575  ,0
2132  ,0.9       ,4.5  ,55.327  ,0
2133  ,0.9       ,4.75  ,55.327  ,0
2134  ,0.9       ,4.25  ,55.578  ,0
2135  ,0.9       ,5  ,55.327  ,0
2136  ,0.9       ,5.25  ,55.327  ,0
2137  ,0.9       ,4.75  ,55.578  ,0
2138  ,0.9       ,5.5  ,55.327  ,0
2139  ,0.9       ,5.25  ,55.578  ,0
2140  ,0.9       ,0.5  ,55.83  ,0
2141  ,0.9       ,0.75  ,55.811  ,0
2142  ,0.9       ,1  ,55.793  ,0
2143  ,0.9       ,0.75  ,56.063  ,0
2144  ,0.9       ,1.25  ,55.758  ,0
2145  ,0.9       ,1.5  ,55.724  ,0
2146  ,0.9       ,1.25  ,56.01  ,0
2147  ,0.9       ,1.75  ,55.645  ,0
2148  ,0.9       ,2  ,55.566  ,0
2149  ,0.9       ,2.25  ,55.654  ,0
2150  ,0.9       ,1.75  ,55.896  ,0
2151  ,0.9       ,2.5  ,55.741  ,0
2152  ,0.9       ,2.75  ,55.774  ,0
2153  ,0.9       ,2.25  ,55.905  ,0
2154  ,0.9       ,3  ,55.807  ,0
2155  ,0.9       ,3.25  ,55.816  ,0
2156  ,0.9       ,2.75  ,56.025  ,0
2157  ,0.9       ,3.5  ,55.825  ,0
2158  ,0.9       ,3.75  ,55.827  ,0
2159  ,0.9       ,3.25  ,56.067  ,0
2160  ,0.9       ,4  ,55.829  ,0
2161  ,0.9       ,4.25  ,55.829  ,0
2162  ,0.9       ,3.75  ,56.078  ,0
2163  ,0.9       ,4.5  ,55.83  ,0
2164  ,0.9       ,4.75  ,55.83  ,0
2165  ,0.9       ,4.25  ,56.081  ,0
2166  ,0.9       ,5  ,55.83  ,0
2167  ,0.9       ,5.25  ,55.83  ,0
2168  ,0.9       ,4.75  ,56.081  ,0
2169  ,0.9       ,5.5  ,55.83  ,0
2170  ,0.9       ,5.25  ,56.081  ,0
2171  ,0.9       ,0.5  ,56.333  ,0
2172  ,0.9       ,0.75  ,56.314  ,0
2173  ,0.9       ,1  ,56.296  ,0
2174  ,0.9       ,0.75  ,56.566  ,0
2175  ,0.9       ,1.25  ,56.261  ,0
2176  ,0.9       ,1.5  ,56.227  ,0
2177  ,0.9       ,1.25  ,56.513  ,0
2178  ,0.9       ,1.75  ,56.148  ,0
2179  ,0.9       ,2  ,56.069  ,0
2180  ,0.9       ,2.25  ,56.157  ,0
2181  ,0.9       ,1.75  ,56.399  ,0
2182  ,0.9       ,2.5  ,56.244  ,0
2183  ,0.9       ,2.75  ,56.277  ,0
2184  ,0.9       ,2.25  ,56.408  ,0
2185  ,0.9       ,3  ,56.31  ,0
2186  ,0.9       ,3.25  ,56.319  ,0
2187  ,0.9       ,2.75  ,56.528  ,0
2188  ,0.9       ,3.5  ,56.328  ,0
2189  ,0.9       ,3.75  ,56.33  ,0
2190  ,0.9       ,3.25  ,56.57  ,0
2191  ,0.9       ,4  ,56.332  ,0
2192  ,0.9       ,4.25  ,56.332  ,0
2193  ,0.9       ,3.75  ,56.581  ,0
2194  ,0.9       ,4.5  ,56.333  ,0
2195  ,0.9       ,4.75  ,56.333  ,0
2196  ,0.9       ,4.25  ,56.584  ,0
2197  ,0.9       ,5  ,56.333  ,0
2198  ,0.9       ,5.25  ,56.333  ,0
2199  ,0.9       ,4.75  ,56.584  ,0
2200  ,0.9       ,5.5  ,56.333  ,0
2201  ,0.9       ,5.25  ,56.584  ,0
2202  ,0.9       ,0.5  ,56.836  ,0
2203  ,0.9       ,0.75  ,56.817  ,0
2204  ,0.9       ,1  ,56.799  ,0
2205  ,0.9       ,0.75  ,57.069  ,0
2206  ,0.9       ,1.25  ,56.764  ,0
2207  ,0.9       ,1.5  ,56.73  ,0
2208  ,0.9       ,1.25  ,57.016  ,0
2209  ,0.9       ,1.75  ,56.651  ,0
2210  ,0.9       ,2  ,56.572  ,0
2211  ,0.9       ,2.25  ,56.66  ,0
2212  ,0.9       ,1.75  ,56.902  ,0
2213  ,0.9       ,2.5  ,56.747  ,0
2214  ,0.9       ,2.75  ,56.78  ,0
2215  ,0.9       ,2.25  ,56.911  ,0
2216  ,0.9       ,3  ,56.813  ,0
2217  ,0.9       ,3.25  ,56.822  ,0
2218  ,0.9       ,2.75  ,57.031  ,0
2219  ,0.9       ,3.5  ,56.831  ,0
2220  ,0.9       ,3.75  ,56.833  ,0
2221  ,0.9       ,3.25  ,57.073  ,0
2222  ,0.9       ,4  ,56.835  ,0
2223  ,0.9       ,4.25  ,56.835  ,0
2224  ,0.9       ,3.75  ,57.084  ,0
2225  ,0.9       ,4.5  ,56.836  ,0
2226  ,0.9       ,4.75  ,56.836  ,0
2227  ,0.9       ,4.25  ,57.087  ,0
2228  ,0.9       ,5  ,56.836  ,0
2229  ,0.9       ,5.25  ,56.836  ,0
2230  ,0.9       ,4.75  ,57.087  ,0
2231  ,0.9       ,5.5  ,56.836  ,0
2232  ,0.9       ,5.25  ,57.087  ,0
2233  ,0.9       ,0.5  ,57.339  ,0
2234  ,0.9       ,0.75  ,57.32  ,0
2235  ,0.9       ,1  ,57.301  ,0
2236  ,0.9       ,0.75  ,57.572  ,0
2237  ,0.9       ,1.25  ,57.267  ,0
2238  ,0.9       ,1.5  ,57.233  ,0
2239  ,0.9       ,1.25  ,57.519  ,0
2240  ,0.9       ,1.75  ,57.154  ,0
2241  ,0.9       ,2  ,57.075  ,0
2242  ,0.9       ,2.25  ,57.163  ,0
2243  ,0.9       ,1.75  ,57.405  ,0
2244  ,0.9       ,2.5  ,57.25  ,0
2245  ,0.9       ,2.75  ,57.283  ,0
2246  ,0.9       ,2.25  ,57.414  ,0
2247  ,0.9       ,3  ,57.315  ,0
2248  ,0.9       ,3.25  ,57.325  ,0
2249  ,0.9       ,2.75  ,57.534  ,0
2250  ,0.9       ,3.5  ,57.334  ,0
2251  ,0.9       ,3.75  ,57.336  ,0
2252  ,0.9       ,3.25  ,57.576  ,0
2253  ,0.9       ,4  ,57.338  ,0
2254  ,0.9       ,4.25  ,57.338  ,0
2255  ,0.9       ,3.75  ,57.587  ,0
2256  ,0.9       ,4.5  ,57.338  ,0
2257  ,0.9       ,4.75  ,57.339  ,0
2258  ,0.9       ,4.25  ,57.59  ,0
2259  ,0.9       ,5  ,57.339  ,0
2260  ,0.9       ,5.25  ,57.339  ,0
2261  ,0.9       ,4.75  ,57.59  ,0
2262  ,0.9       ,5.5  ,57.339  ,0
2263  ,0.9       ,5.25  ,57.59  ,0
2264  ,0.9       ,0.5  ,57.842  ,0
2265  ,0.9       ,0.75  ,57.823  ,0
2266  ,0.9       ,1  ,57.804  ,0
2267  ,0.9       ,0.75  ,58.075  ,0
2268  ,0.9       ,1.25  ,57.77  ,0
2269  ,0.9       ,1.5  ,57.736  ,0
2270  ,0.9       ,1.25  ,58.022  ,0
2271  ,0.9       ,1.75  ,57.657  ,0
2272  ,0.9       ,2  ,57.578  ,0
2273  ,0.9       ,2.25  ,57.666  ,0
2274  ,0.9       ,1.75  ,57.908  ,0
2275  ,0.9       ,2.5  ,57.753  ,0
2276  ,0.9       ,2.75  ,57.786  ,0
2277  ,0.9       ,2.25  ,57.917  ,0
2278  ,0.9       ,3  ,57.818  ,0
2279  ,0.9       ,3.25  ,57.827  ,0
2280  ,0.9       ,2.75  ,58.037  ,0
2281  ,0.9       ,3.5  ,57.837  ,0
2282  ,0.9       ,3.75  ,57.839  ,0
2283  ,0.9       ,3.25  ,58.079  ,0
2284  ,0.9       ,4  ,57.841  ,0
2285  ,0.9       ,4.25  ,57.841  ,0
2286  ,0.9       ,3.75  ,58.09  ,0
2287  ,0.9       ,4.5  ,57.841  ,0
2288  ,0.9       ,4.75  ,57.842  ,0
2289  ,0.9       ,4.25  ,58.093  ,0
2290  ,0.9       ,5  ,57.842  ,0
2291  ,0.9       ,5.25  ,57.842  ,0
2292  ,0.9       ,4.75  ,58.093  ,0
2293  ,0.9       ,5.5  ,57.842  ,0
2294  ,0.9       ,5.25  ,58.093  ,0
2295  ,0.9       ,0.5  ,58.345  ,0
2296  ,0.9       ,0.75001  ,58.326  ,0
2297  ,0.9       ,1  ,58.307  ,0
2298  ,0.9       ,0.75001  ,58.577  ,0
2299  ,0.9       ,1.25  ,58.273  ,0
2300  ,0.9       ,1.5  ,58.239  ,0
2301  ,0.9       ,1.25  ,58.524  ,0
2302  ,0.9       ,1.75  ,58.16  ,0
2303  ,0.9       ,2  ,58.081  ,0
2304  ,0.9       ,2.25  ,58.169  ,0
2305  ,0.9       ,1.75  ,58.411  ,0
2306  ,0.9       ,2.5  ,58.256  ,0
2307  ,0.9       ,2.75  ,58.289  ,0
2308  ,0.9       ,2.25  ,58.42  ,0
2309  ,0.9       ,3  ,58.321  ,0
2310  ,0.9       ,3.25  ,58.33  ,0
2311  ,0.9       ,2.75  ,58.54  ,0
2312  ,0.9       ,3.5  ,58.34  ,0
2313  ,0.9       ,3.75  ,58.342  ,0
2314  ,0.9       ,3.25  ,58.582  ,0
2315  ,0.9       ,4  ,58.344  ,0
2316  ,0.9       ,4.25  ,58.344  ,0
2317  ,0.9       ,3.75  ,58.593  ,0
2318  ,0.9       ,4.5  ,58.344  ,0
2319  ,0.9       ,4.75  ,58.344  ,0
2320  ,0.9       ,4.25  ,58.595  ,0
2321  ,0.9       ,5  ,58.345  ,0
2322  ,0.9       ,5.25  ,58.345  ,0
2323  ,0.9       ,4.75  ,58.596  ,0
2324  ,0.9       ,5.5  ,58.345  ,0
2325  ,0.9       ,5.25  ,58.596  ,0
2326  ,0.9       ,0.5  ,58.848  ,0
2327  ,0.9       ,0.75001  ,58.829  ,0
2328  ,0.9       ,1  ,58.81  ,0
2329  ,0.9       ,0.75001  ,59.08  ,0
2330  ,0.9       ,1.25  ,58.776  ,0
2331  ,0.9       ,1.5  ,58.742  ,0
2332  ,0.9       ,1.25  ,59.027  ,0
2333  ,0.9       ,1.75  ,58.663  ,0
2334  ,0.9       ,2  ,58.584  ,0
2335  ,0.9       ,2.25  ,58.672  ,0
2336  ,0.9       ,1.75  ,58.914  ,0
2337  ,0.9       ,2.5  ,58.759  ,0
2338  ,0.9       ,2.75  ,58.792  ,0
2339  ,0.9       ,2.25  ,58.923  ,0
2340  ,0.9       ,3  ,58.824  ,0
2341  ,0.9       ,3.25  ,58.833  ,0
2342  ,0.9       ,2.75  ,59.043  ,0
2343  ,0.9       ,3.5  ,58.842  ,0
2344  ,0.9       ,3.75  ,58.845  ,0
2345  ,0.9       ,3.25  ,59.085  ,0
2346  ,0.9       ,4.0001  ,58.847  ,0
2347  ,0.9       ,4.2501  ,58.847  ,0
2348  ,0.9       ,3.7501  ,59.096  ,0
2349  ,0.9       ,4.5001  ,58.847  ,0
2350  ,0.9       ,4.7501  ,58.847  ,0
2351  ,0.9       ,4.2501  ,59.098  ,0
2352  ,0.9       ,5  ,58.848  ,0
2353  ,0.9       ,5.25  ,58.848  ,0
2354  ,0.9       ,4.7501  ,59.099  ,0
2355  ,0.9       ,5.5  ,58.848  ,0
2356  ,0.9       ,5.25  ,59.099  ,0
2357  ,0.8       ,0.5  ,59.351  ,0
2358  ,0.8       ,0.75003  ,59.332  ,0
2359  ,0.8       ,1  ,59.313  ,0
2360  ,0.8       ,0.75003  ,59.583  ,0
2361  ,0.8       ,1.25  ,59.279  ,0
2362  ,0.9       ,1.5  ,59.245  ,0
2363  ,0.8       ,1.2501  ,59.53  ,0
2364  ,0.9       ,1.75  ,59.166  ,0
2365  ,0.9       ,2  ,59.087  ,0
2366  ,0.9       ,2.25  ,59.174  ,0
2367  ,0.8       ,1.75  ,59.417  ,0
2368  ,0.9       ,2.5001  ,59.262  ,0
2369  ,0.9       ,2.7501  ,59.295  ,0
2370  ,0.9       ,2.2501  ,59.426  ,0
2371  ,0.9       ,3.0001  ,59.327  ,0
2372  ,0.9       ,3.2501  ,59.336  ,0
2373  ,0.9       ,2.7501  ,59.546  ,0
2374  ,0.9       ,3.5001  ,59.345  ,0
2375  ,0.9       ,3.7501  ,59.347  ,0
2376  ,0.9       ,3.2502  ,59.588  ,0
2377  ,0.9       ,4.0002  ,59.35  ,0
2378  ,0.9       ,4.2502  ,59.35  ,0
2379  ,0.9       ,3.7502  ,59.599  ,0
2380  ,0.9       ,4.5002  ,59.35  ,0
2381  ,0.9       ,4.7502  ,59.35  ,0
2382  ,0.9       ,4.2503  ,59.601  ,0
2383  ,0.9       ,5.0002  ,59.351  ,0
2384  ,0.9       ,5.2501  ,59.351  ,0
2385  ,0.9       ,4.7503  ,59.602  ,0
2386  ,0.9       ,5.5  ,59.351  ,0
2387  ,0.9       ,5.2501  ,59.602  ,0
2388  ,0.8       ,0.5  ,59.854  ,0
2389  ,0.8       ,0.75007  ,59.835  ,0
2390  ,0.8       ,1.0001  ,59.816  ,0
2391  ,0.8       ,0.75007  ,60.086  ,0
2392  ,0.8       ,1.2501  ,59.782  ,0
2393  ,0.8       ,1.5001  ,59.748  ,0
2394  ,0.8       ,1.2502  ,60.033  ,0
2395  ,0.8       ,1.7501  ,59.669  ,0
2396  ,0.8       ,2.0001  ,59.59  ,0
2397  ,0.8       ,2.2501  ,59.677  ,0
2398  ,0.8       ,1.7502  ,59.92  ,0
2399  ,0.8       ,2.5002  ,59.765  ,0
2400  ,0.8       ,2.7502  ,59.798  ,0
2401  ,0.8       ,2.2502  ,59.929  ,0
2402  ,0.9       ,3.0003  ,59.83  ,0
2403  ,0.9       ,3.2503  ,59.839  ,0
2404  ,0.8       ,2.7504  ,60.049  ,0
2405  ,0.9       ,3.5004  ,59.848  ,0
2406  ,0.9       ,3.7504  ,59.85  ,0
2407  ,0.8       ,3.2505  ,60.091  ,0
2408  ,0.9       ,4.0005  ,59.853  ,0
2409  ,0.9       ,4.2505  ,59.853  ,0
2410  ,0.9       ,3.7507  ,60.102  ,0
2411  ,0.9       ,4.5005  ,59.853  ,0
2412  ,0.9       ,4.7505  ,59.853  ,0
2413  ,0.9       ,4.2508  ,60.104  ,0
2414  ,0.9       ,5.0005  ,59.853  ,0
2415  ,0.9       ,5.2504  ,59.853  ,0
2416  ,0.9       ,4.7508  ,60.105  ,0
2417  ,0.9       ,5.5  ,59.854  ,0
2418  ,0.9       ,5.2504  ,60.105  ,0
2419  ,0.8       ,0.5  ,60.356  ,0
2420  ,0.8       ,0.75011  ,60.338  ,0
2421  ,0.8       ,1.0002  ,60.32  ,0
2422  ,0.8       ,0.75011  ,60.59  ,0
2423  ,0.8       ,1.2504  ,60.285  ,0
2424  ,0.8       ,1.5004  ,60.251  ,0
2425  ,0.8       ,1.2504  ,60.537  ,0
2426  ,0.8       ,1.7503  ,60.172  ,0
2427  ,0.8       ,2.0003  ,60.093  ,0
2428  ,0.8       ,2.2504  ,60.18  ,0
2429  ,0.8       ,1.7505  ,60.423  ,0
2430  ,0.8       ,2.5006  ,60.268  ,0
2431  ,0.8       ,2.7507  ,60.301  ,0
2432  ,0.8       ,2.2507  ,60.432  ,0
2433  ,0.8       ,3.0009  ,60.333  ,0
2434  ,0.8       ,3.251  ,60.342  ,0
2435  ,0.8       ,2.7511  ,60.552  ,0
2436  ,0.8       ,3.5012  ,60.351  ,0
2437  ,0.9       ,3.7513  ,60.353  ,0
2438  ,0.8       ,3.2516  ,60.594  ,0
2439  ,0.9       ,4.0014  ,60.355  ,0
2440  ,0.9       ,4.2515  ,60.356  ,0
2441  ,0.8       ,3.752  ,60.605  ,0
2442  ,0.9       ,4.5016  ,60.356  ,0
2443  ,0.9       ,4.7515  ,60.356  ,0
2444  ,0.9       ,4.2522  ,60.607  ,0
2445  ,0.9       ,5.0014  ,60.356  ,0
2446  ,0.9       ,5.251  ,60.356  ,0
2447  ,0.9       ,4.7522  ,60.608  ,0
2448  ,0.9       ,5.5  ,60.356  ,0
2449  ,0.9       ,5.251  ,60.608  ,0
2450  ,0.8       ,0.50012  ,60.859  ,0
2451  ,0.8       ,0.74962  ,60.843  ,0
2452  ,0.8       ,0.99974  ,60.824  ,0
2453  ,0.8       ,0.74974  ,61.094  ,0
2454  ,0.8       ,1.2507  ,60.789  ,0
2455  ,0.8       ,1.5009  ,60.754  ,0
2456  ,0.8       ,1.2502  ,61.042  ,0
2457  ,0.8       ,1.751  ,60.675  ,0
2458  ,0.8       ,2.0009  ,60.596  ,0
2459  ,0.8       ,2.2512  ,60.683  ,0
2460  ,0.8       ,1.7513  ,60.927  ,0
2461  ,0.8       ,2.5018  ,60.771  ,0
2462  ,0.8       ,2.752  ,60.804  ,0
2463  ,0.8       ,2.252  ,60.935  ,0
2464  ,0.8       ,3.0026  ,60.836  ,0
2465  ,0.8       ,3.2528  ,60.845  ,0
2466  ,0.8       ,2.7532  ,61.055  ,0
2467  ,0.8       ,3.5032  ,60.854  ,0
2468  ,0.8       ,3.7534  ,60.856  ,0
2469  ,0.8       ,3.2542  ,61.097  ,0
2470  ,0.8       ,4.0038  ,60.858  ,0
2471  ,0.9       ,4.2539  ,60.859  ,0
2472  ,0.8       ,3.7551  ,61.108  ,0
2473  ,0.9       ,4.5042  ,60.859  ,0
2474  ,0.9       ,4.7541  ,60.859  ,0
2475  ,0.9       ,4.2558  ,61.11  ,0
2476  ,0.9       ,5.0039  ,60.859  ,0
2477  ,0.9       ,5.2529  ,60.859  ,0
2478  ,0.9       ,4.7559  ,61.111  ,0
2479  ,0.9       ,5.5013  ,60.859  ,0
2480  ,0.9       ,5.2542  ,61.111  ,0
2481  ,0.8       ,0.50065  ,61.362  ,0
2482  ,0.8       ,0.74528  ,61.354  ,0
2483  ,0.8       ,0.99478  ,61.337  ,0
2484  ,0.8       ,0.74569  ,61.606  ,0
2485  ,0.8       ,1.2503  ,61.295  ,0
2486  ,0.8       ,1.5013  ,61.26  ,0
2487  ,0.8       ,1.2458  ,61.555  ,0
2488  ,0.8       ,1.7525  ,61.178  ,0
2489  ,0.8       ,2.0025  ,61.099  ,0
2490  ,0.8       ,2.2531  ,61.187  ,0
2491  ,0.8       ,1.7525  ,61.432  ,0
2492  ,0.8       ,2.5045  ,61.274  ,0
2493  ,0.8       ,2.755  ,61.307  ,0
2494  ,0.8       ,2.255  ,61.438  ,0
2495  ,0.8       ,3.0062  ,61.339  ,0
2496  ,0.8       ,3.2567  ,61.348  ,0
2497  ,0.8       ,2.7575  ,61.558  ,0
2498  ,0.8       ,3.5077  ,61.357  ,0
2499  ,0.8       ,3.7581  ,61.359  ,0
2500  ,0.8       ,3.2597  ,61.6  ,0
2501  ,0.8       ,4.009  ,61.361  ,0
2502  ,0.8       ,4.2593  ,61.362  ,0
2503  ,0.8       ,3.7616  ,61.611  ,0
2504  ,0.9       ,4.51  ,61.362  ,0
2505  ,0.9       ,4.7599  ,61.362  ,0
2506  ,0.8       ,4.2632  ,61.613  ,0
2507  ,0.9       ,5.0101  ,61.362  ,0
2508  ,0.9       ,5.2584  ,61.362  ,0
2509  ,0.9       ,4.7641  ,61.614  ,0
2510  ,0.9       ,5.5071  ,61.362  ,0
2511  ,0.9       ,5.263  ,61.614  ,0
2512  ,0.8       ,0.50182  ,61.865  ,0
2513  ,0.8       ,0.71716  ,61.903  ,0
2514  ,0.8       ,0.96178  ,61.895  ,0
2515  ,0.8       ,0.71792  ,62.155  ,0
2516  ,0.8       ,1.2436  ,61.815  ,0
2517  ,0.8       ,1.4991  ,61.773  ,0
2518  ,0.8       ,1.215  ,62.113  ,0
2519  ,0.8       ,1.7545  ,61.684  ,0
2520  ,0.8       ,2.0057  ,61.603  ,0
2521  ,0.8       ,2.257  ,61.691  ,0
2522  ,0.8       ,1.7523  ,61.944  ,0
2523  ,0.8       ,2.5098  ,61.777  ,0
2524  ,0.8       ,2.761  ,61.81  ,0
2525  ,0.8       ,2.2604  ,61.942  ,0
2526  ,0.8       ,3.0131  ,61.842  ,0
2527  ,0.8       ,3.2641  ,61.851  ,0
2528  ,0.8       ,2.7653  ,62.062  ,0
2529  ,0.8       ,3.5159  ,61.86  ,0
2530  ,0.8       ,3.7668  ,61.863  ,0
2531  ,0.8       ,3.2693  ,62.103  ,0
2532  ,0.8       ,4.0185  ,61.864  ,0
2533  ,0.8       ,4.2692  ,61.865  ,0
2534  ,0.8       ,3.7728  ,62.114  ,0
2535  ,0.8       ,4.5207  ,61.865  ,0
2536  ,0.9       ,4.7709  ,61.865  ,0
2537  ,0.8       ,4.276  ,62.116  ,0
2538  ,0.9       ,5.0218  ,61.865  ,0
2539  ,0.9       ,5.2705  ,61.865  ,0
2540  ,0.9       ,4.7784  ,62.117  ,0
2541  ,0.9       ,5.52  ,61.865  ,0
2542  ,0.9       ,5.2789  ,62.117  ,0
2543  ,0.8       ,0.5037  ,62.368  ,0
2544  ,0.8       ,0.71903  ,62.406  ,0
2545  ,0.8       ,0.96776  ,62.5  ,0
2546  ,0.8       ,0.75355  ,62.714  ,0
2547  ,0.8       ,1.2191  ,62.378  ,0
2548  ,0.8       ,1.5009  ,62.298  ,0
2549  ,0.8       ,1.2536  ,62.686  ,0
2550  ,0.8       ,1.7559  ,62.197  ,0
2551  ,0.8       ,2.0113  ,62.108  ,0
2552  ,0.8       ,2.264  ,62.195  ,0
2553  ,0.8       ,1.7599  ,62.462  ,0
2554  ,0.8       ,2.5185  ,62.281  ,0
2555  ,0.8       ,2.7706  ,62.314  ,0
2556  ,0.8       ,2.2693  ,62.447  ,0
2557  ,0.8       ,3.0241  ,62.346  ,0
2558  ,0.8       ,3.2759  ,62.355  ,0
2559  ,0.8       ,2.7772  ,62.565  ,0
2560  ,0.8       ,3.529  ,62.364  ,0
2561  ,0.8       ,3.7807  ,62.366  ,0
2562  ,0.8       ,3.2838  ,62.607  ,0
2563  ,0.8       ,4.0335  ,62.368  ,0
2564  ,0.8       ,4.285  ,62.368  ,0
2565  ,0.8       ,3.7898  ,62.617  ,0
2566  ,0.8       ,4.5376  ,62.368  ,0
2567  ,0.8       ,4.7885  ,62.368  ,0
2568  ,0.8       ,4.2951  ,62.619  ,0
2569  ,0.9       ,5.0405  ,62.368  ,0
2570  ,0.9       ,5.2901  ,62.368  ,0
2571  ,0.8       ,4.7997  ,62.62  ,0
2572  ,0.9       ,5.5407  ,62.368  ,0
2573  ,0.9       ,5.3023  ,62.62  ,0
2574  ,0.8       ,0.50628  ,62.871  ,0
2575  ,0.8       ,0.75501  ,62.965  ,0
2576  ,0.8       ,1.0105  ,63.067  ,0
2577  ,0.8       ,0.76325  ,63.225  ,0
2578  ,0.8       ,1.2629  ,62.946  ,0
2579  ,0.8       ,1.5143  ,62.824  ,0
2580  ,0.8       ,1.2712  ,63.206  ,0
2581  ,0.8       ,1.7657  ,62.716  ,0
2582  ,0.8       ,2.0206  ,62.615  ,0
2583  ,0.8       ,2.275  ,62.7  ,0
2584  ,0.8       ,1.775  ,62.976  ,0
2585  ,0.8       ,2.5312  ,62.786  ,0
2586  ,0.8       ,2.7847  ,62.818  ,0
2587  ,0.8       ,2.2825  ,62.953  ,0
2588  ,0.8       ,3.0402  ,62.85  ,0
2589  ,0.8       ,3.2934  ,62.859  ,0
2590  ,0.8       ,2.7942  ,63.07  ,0
2591  ,0.8       ,3.5483  ,62.867  ,0
2592  ,0.8       ,3.8011  ,62.869  ,0
2593  ,0.8       ,3.3047  ,63.111  ,0
2594  ,0.8       ,4.0554  ,62.871  ,0
2595  ,0.8       ,4.3079  ,62.871  ,0
2596  ,0.8       ,3.8139  ,63.121  ,0
2597  ,0.8       ,4.5617  ,62.871  ,0
2598  ,0.8       ,4.8137  ,62.871  ,0
2599  ,0.8       ,4.322  ,63.123  ,0
2600  ,0.9       ,5.0669  ,62.871  ,0
2601  ,0.9       ,5.3175  ,62.871  ,0
2602  ,0.8       ,4.8289  ,63.123  ,0
2603  ,0.9       ,5.5691  ,62.871  ,0
2604  ,0.9       ,5.3336  ,63.123  ,0
2605  ,0.7       ,0.50958  ,63.374  ,0
2606  ,0.7       ,0.76508  ,63.477  ,0
2607  ,0.7       ,1.0228  ,63.581  ,0
2608  ,0.7       ,0.76915  ,63.73  ,0
2609  ,0.7       ,1.2773  ,63.461  ,0
2610  ,0.8       ,1.5297  ,63.34  ,0
2611  ,0.7       ,1.2814  ,63.715  ,0
2612  ,0.8       ,1.7824  ,63.23  ,0
2613  ,0.8       ,2.0338  ,63.122  ,0
2614  ,0.8       ,2.29  ,63.207  ,0
2615  ,0.8       ,1.7886  ,63.486  ,0
2616  ,0.8       ,2.5495  ,63.293  ,0
2617  ,0.8       ,2.8051  ,63.325  ,0
2618  ,0.8       ,2.3008  ,63.462  ,0
2619  ,0.8       ,3.0643  ,63.356  ,0
2620  ,0.8       ,3.3192  ,63.365  ,0
2621  ,0.8       ,2.8195  ,63.579  ,0
2622  ,0.8       ,3.5764  ,63.372  ,0
2623  ,0.8       ,3.8306  ,63.373  ,0
2624  ,0.8       ,3.3359  ,63.617  ,0
2625  ,0.8       ,4.086  ,63.374  ,0
2626  ,0.8       ,4.3398  ,63.374  ,0
2627  ,0.8       ,3.8484  ,63.625  ,0
2628  ,0.8       ,4.5946  ,63.374  ,0
2629  ,0.8       ,4.8478  ,63.374  ,0
2630  ,0.8       ,4.3587  ,63.626  ,0
2631  ,0.8       ,5.1019  ,63.374  ,0
2632  ,0.9       ,5.3535  ,63.374  ,0
2633  ,0.8       ,4.8676  ,63.626  ,0
2634  ,0.9       ,5.6053  ,63.374  ,0
2635  ,0.8       ,5.3735  ,63.626  ,0
2636  ,0.7       ,0.51358  ,63.877  ,0
2637  ,0.7       ,0.77134  ,63.981  ,0
2638  ,0.7       ,1.0318  ,64.081  ,0
2639  ,0.7       ,0.77624  ,64.228  ,0
2640  ,0.7       ,1.2857  ,63.974  ,0
2641  ,0.7       ,1.5402  ,63.855  ,0
2642  ,0.7       ,1.2906  ,64.222  ,0
2643  ,0.7       ,1.7984  ,63.748  ,0
2644  ,0.8       ,2.0511  ,63.638  ,0
2645  ,0.8       ,2.3106  ,63.724  ,0
2646  ,0.7       ,1.8027  ,64.007  ,0
2647  ,0.8       ,2.5789  ,63.81  ,0
2648  ,0.8       ,2.8381  ,63.841  ,0
2649  ,0.7       ,2.3292  ,63.986  ,0
2650  ,0.8       ,3.1035  ,63.865  ,0
2651  ,0.8       ,3.3607  ,63.872  ,0
2652  ,0.8       ,2.8629  ,64.096  ,0
2653  ,0.8       ,3.6182  ,63.876  ,0
2654  ,0.8       ,3.8736  ,63.877  ,0
2655  ,0.8       ,3.3859  ,64.124  ,0
2656  ,0.8       ,4.1293  ,63.877  ,0
2657  ,0.8       ,4.3841  ,63.877  ,0
2658  ,0.8       ,3.899  ,64.128  ,0
2659  ,0.8       ,4.6393  ,63.877  ,0
2660  ,0.8       ,4.8934  ,63.877  ,0
2661  ,0.8       ,4.4099  ,64.129  ,0
2662  ,0.8       ,5.1474  ,63.877  ,0
2663  ,0.8       ,5.3993  ,63.877  ,0
2664  ,0.8       ,4.9191  ,64.129  ,0
2665  ,0.9       ,5.6494  ,63.877  ,0
2666  ,0.8       ,5.4233  ,64.129  ,0
2667  ,0.7       ,0.51831  ,64.38  ,0
2668  ,0.7       ,0.77878  ,64.48  ,0
2669  ,0.7       ,1.0658  ,64.545  ,0
2670  ,0.7       ,0.80784  ,64.696  ,0
2671  ,0.7       ,1.278  ,64.471  ,0
2672  ,0.7       ,1.5319  ,64.364  ,0
2673  ,0.7       ,1.3071  ,64.687  ,0
2674  ,0.7       ,1.8154  ,64.306  ,0
2675  ,0.7       ,2.0737  ,64.198  ,0
2676  ,0.7       ,2.342  ,64.285  ,0
2677  ,0.7       ,1.8029  ,64.555  ,0
2678  ,0.7       ,2.6422  ,64.336  ,0
2679  ,0.7       ,2.9076  ,64.359  ,0
2680  ,0.7       ,2.3867  ,64.548  ,0
2681  ,0.8       ,3.1689  ,64.373  ,0
2682  ,0.8       ,3.4264  ,64.377  ,0
2683  ,0.7       ,2.9481  ,64.613  ,0
2684  ,0.8       ,3.6814  ,64.379  ,0
2685  ,0.8       ,3.937  ,64.38  ,0
2686  ,0.7       ,3.4644  ,64.629  ,0
2687  ,0.8       ,4.1914  ,64.38  ,0
2688  ,0.8       ,4.4466  ,64.38  ,0
2689  ,0.8       ,3.9737  ,64.631  ,0
2690  ,0.8       ,4.7005  ,64.38  ,0
2691  ,0.8       ,4.9545  ,64.38  ,0
2692  ,0.8       ,4.482  ,64.632  ,0
2693  ,0.8       ,5.2066  ,64.38  ,0
2694  ,0.8       ,5.4568  ,64.38  ,0
2695  ,0.8       ,4.988  ,64.632  ,0
2696  ,0.8       ,5.7014  ,64.38  ,0
2697  ,0.8       ,5.4847  ,64.632  ,0
2698  ,0.7       ,0.5035  ,64.883  ,0
2699  ,0.7       ,0.7262  ,64.93  ,0
2700  ,0.7       ,1.0132  ,64.995  ,0
2701  ,0.7       ,0.70885  ,65.182  ,0
2702  ,0.7       ,1.2837  ,64.924  ,0
2703  ,0.7       ,1.496  ,64.85  ,0
2704  ,0.7       ,1.2021  ,65.158  ,0
2705  ,0.7       ,1.6961  ,64.784  ,0
2706  ,0.7       ,1.9796  ,64.725  ,0
2707  ,0.7       ,1.6727  ,65.02  ,0
2708  ,0.7       ,2.1991  ,64.773  ,0
2709  ,0.7       ,2.4994  ,64.824  ,0
2710  ,0.7       ,2.0924  ,65.002  ,0
2711  ,0.7       ,2.752  ,64.856  ,0
2712  ,0.7       ,3.0132  ,64.869  ,0
2713  ,0.7       ,2.5645  ,65.081  ,0
2714  ,0.7       ,3.2651  ,64.878  ,0
2715  ,0.7       ,3.5201  ,64.881  ,0
2716  ,0.7       ,3.069  ,65.121  ,0
2717  ,0.7       ,3.7714  ,64.883  ,0
2718  ,0.8       ,4.0257  ,64.883  ,0
2719  ,0.7       ,3.5721  ,65.132  ,0
2720  ,0.8       ,4.2767  ,64.883  ,0
2721  ,0.8       ,4.5307  ,64.883  ,0
2722  ,0.7       ,4.0744  ,65.134  ,0
2723  ,0.8       ,4.7814  ,64.883  ,0
2724  ,0.8       ,5.0335  ,64.883  ,0
2725  ,0.8       ,4.5761  ,65.135  ,0
2726  ,0.8       ,5.2835  ,64.883  ,0
2727  ,0.8       ,5.5281  ,64.883  ,0
2728  ,0.8       ,5.0769  ,65.135  ,0
2729  ,0.8       ,5.7815  ,64.883  ,0
2730  ,0.8       ,5.5803  ,65.135  ,0
2731  ,0.7       ,0.48915  ,65.386  ,0
2732  ,0.7       ,0.71186  ,65.433  ,0
2733  ,0.7       ,0.95579  ,65.529  ,0
2734  ,0.7       ,0.7361  ,65.733  ,0
2735  ,0.7       ,1.1997  ,65.409  ,0
2736  ,0.7       ,1.4702  ,65.338  ,0
2737  ,0.7       ,1.2239  ,65.709  ,0
2738  ,0.7       ,1.703  ,65.239  ,0
2739  ,0.7       ,1.9031  ,65.173  ,0
2740  ,0.7       ,2.1226  ,65.221  ,0
2741  ,0.7       ,1.7006  ,65.49  ,0
2742  ,0.7       ,2.367  ,65.302  ,0
2743  ,0.7       ,2.6196  ,65.333  ,0
2744  ,0.7       ,2.1778  ,65.473  ,0
2745  ,0.7       ,2.8695  ,65.365  ,0
2746  ,0.7       ,3.1214  ,65.374  ,0
2747  ,0.7       ,2.672  ,65.586  ,0
2748  ,0.7       ,3.3711  ,65.383  ,0
2749  ,0.7       ,3.6223  ,65.384  ,0
2750  ,0.7       ,3.1716  ,65.626  ,0
2751  ,0.7       ,3.8714  ,65.386  ,0
2752  ,0.7       ,4.1225  ,65.386  ,0
2753  ,0.7       ,3.6704  ,65.636  ,0
2754  ,0.7       ,4.3713  ,65.386  ,0
2755  ,0.8       ,4.622  ,65.386  ,0
2756  ,0.7       ,4.1683  ,65.638  ,0
2757  ,0.8       ,4.8706  ,65.386  ,0
2758  ,0.8       ,5.1207  ,65.386  ,0
2759  ,0.7       ,4.6658  ,65.638  ,0
2760  ,0.8       ,5.3694  ,65.386  ,0
2761  ,0.8       ,5.6227  ,65.386  ,0
2762  ,0.8       ,5.1631  ,65.638  ,0
2763  ,0.8       ,5.8699  ,65.386  ,0
2764  ,0.8       ,5.6589  ,65.638  ,0
2765  ,0.7       ,0.49552  ,65.889  ,0
2766  ,0.7       ,0.73945  ,65.985  ,0
2767  ,0.7       ,0.98483  ,66.09  ,0
2768  ,0.7       ,0.74425  ,66.245  ,0
2769  ,0.7       ,1.2333  ,65.97  ,0
2770  ,0.7       ,1.4771  ,65.85  ,0
2771  ,0.7       ,1.238  ,66.231  ,0
2772  ,0.7       ,1.7218  ,65.74  ,0
2773  ,0.7       ,1.9546  ,65.642  ,0
2774  ,0.7       ,2.199  ,65.723  ,0
2775  ,0.7       ,1.7311  ,66.002  ,0
2776  ,0.7       ,2.4518  ,65.81  ,0
2777  ,0.7       ,2.7017  ,65.842  ,0
2778  ,0.7       ,2.2286  ,65.979  ,0
2779  ,0.7       ,2.955  ,65.872  ,0
2780  ,0.7       ,3.2047  ,65.881  ,0
2781  ,0.7       ,2.7347  ,66.096  ,0
2782  ,0.7       ,3.4564  ,65.887  ,0
2783  ,0.7       ,3.7056  ,65.888  ,0
2784  ,0.7       ,3.2398  ,66.133  ,0
2785  ,0.7       ,3.9557  ,65.889  ,0
2786  ,0.7       ,4.2045  ,65.889  ,0
2787  ,0.7       ,3.7417  ,66.14  ,0
2788  ,0.7       ,4.4543  ,65.889  ,0
2789  ,0.7       ,4.7029  ,65.889  ,0
2790  ,0.7       ,4.2417  ,66.141  ,0
2791  ,0.7       ,4.9526  ,65.889  ,0
2792  ,0.8       ,5.2013  ,65.889  ,0
2793  ,0.7       ,4.7411  ,66.141  ,0
2794  ,0.8       ,5.4507  ,65.889  ,0
2795  ,0.8       ,5.6978  ,65.889  ,0
2796  ,0.7       ,5.2401  ,66.141  ,0
2797  ,0.8       ,5.9462  ,65.889  ,0
2798  ,0.8       ,5.738  ,66.141  ,0
2799  ,0.7       ,0.50256  ,66.392  ,0
2800  ,0.7       ,0.74794  ,66.497  ,0
2801  ,0.7       ,0.97999  ,66.599  ,0
2802  ,0.7       ,0.7383  ,66.746  ,0
2803  ,0.7       ,1.2339  ,66.495  ,0
2804  ,0.7       ,1.4823  ,66.376  ,0
2805  ,0.7       ,1.2243  ,66.744  ,0
2806  ,0.7       ,1.7422  ,66.266  ,0
2807  ,0.7       ,1.9868  ,66.157  ,0
2808  ,0.7       ,2.2396  ,66.243  ,0
2809  ,0.7       ,1.738  ,66.531  ,0
2810  ,0.7       ,2.5014  ,66.33  ,0
2811  ,0.7       ,2.7547  ,66.361  ,0
2812  ,0.7       ,2.2596  ,66.508  ,0
2813  ,0.7       ,3.0171  ,66.382  ,0
2814  ,0.7       ,3.2689  ,66.388  ,0
2815  ,0.7       ,2.7838  ,66.616  ,0
2816  ,0.7       ,3.5234  ,66.391  ,0
2817  ,0.7       ,3.7735  ,66.392  ,0
2818  ,0.7       ,3.3007  ,66.64  ,0
2819  ,0.7       ,4.0262  ,66.392  ,0
2820  ,0.7       ,4.2759  ,66.392  ,0
2821  ,0.7       ,3.8078  ,66.643  ,0
2822  ,0.7       ,4.5284  ,66.392  ,0
2823  ,0.7       ,4.7781  ,66.392  ,0
2824  ,0.7       ,4.3129  ,66.644  ,0
2825  ,0.7       ,5.0304  ,66.392  ,0
2826  ,0.7       ,5.2798  ,66.392  ,0
2827  ,0.7       ,4.8177  ,66.644  ,0
2828  ,0.7       ,5.5317  ,66.392  ,0
2829  ,0.8       ,5.7802  ,66.392  ,0
2830  ,0.7       ,5.3219  ,66.644  ,0
2831  ,0.8       ,6.0307  ,66.392  ,0
2832  ,0.7       ,5.8244  ,66.644  ,0
2833  ,0.7       ,0.51028  ,66.895  ,0
2834  ,0.7       ,0.74233  ,66.997  ,0
2835  ,0.7       ,0.94371  ,67.06  ,0
2836  ,0.7       ,0.71569  ,67.21  ,0
2837  ,0.7       ,1.175  ,67.004  ,0
2838  ,0.7       ,1.429  ,66.9  ,0
2839  ,0.7       ,1.1484  ,67.216  ,0
2840  ,0.7       ,1.7337  ,66.841  ,0
2841  ,0.7       ,1.9935  ,66.731  ,0
2842  ,0.7       ,2.2553  ,66.818  ,0
2843  ,0.7       ,1.6845  ,67.101  ,0
2844  ,0.7       ,2.5599  ,66.861  ,0
2845  ,0.7       ,2.8223  ,66.883  ,0
2846  ,0.7       ,2.2938  ,67.085  ,0
2847  ,0.7       ,3.0846  ,66.891  ,0
2848  ,0.7       ,3.3391  ,66.894  ,0
2849  ,0.7       ,2.8607  ,67.137  ,0
2850  ,0.7       ,3.5945  ,66.895  ,0
2851  ,0.7       ,3.8472  ,66.895  ,0
2852  ,0.7       ,3.3784  ,67.146  ,0
2853  ,0.7       ,4.1021  ,66.895  ,0
2854  ,0.7       ,4.3545  ,66.895  ,0
2855  ,0.7       ,3.8888  ,67.147  ,0
2856  ,0.7       ,4.6093  ,66.895  ,0
2857  ,0.7       ,4.8617  ,66.895  ,0
2858  ,0.7       ,4.3985  ,67.147  ,0
2859  ,0.7       ,5.1163  ,66.895  ,0
2860  ,0.7       ,5.3682  ,66.895  ,0
2861  ,0.7       ,4.908  ,67.147  ,0
2862  ,0.7       ,5.622  ,66.895  ,0
2863  ,0.7       ,5.8726  ,66.895  ,0
2864  ,0.7       ,5.4164  ,67.147  ,0
2865  ,0.7       ,6.1233  ,66.895  ,0
2866  ,0.7       ,5.9209  ,67.147  ,0
2867  ,0.7       ,0.51868  ,67.398  ,0
2868  ,0.7       ,0.72007  ,67.461  ,0
2869  ,0.7       ,1.0334  ,67.459  ,0
2870  ,0.7       ,1.2647  ,67.402  ,0
2871  ,0.7       ,0.83642  ,67.647  ,0
2872  ,0.7       ,1.5248  ,67.383  ,0
2873  ,0.7       ,1.8296  ,67.324  ,0
2874  ,0.7       ,1.4098  ,67.626  ,0
2875  ,0.7       ,2.0918  ,67.333  ,0
2876  ,0.7       ,2.3964  ,67.377  ,0
2877  ,0.7       ,1.9321  ,67.616  ,0
2878  ,0.7       ,2.6581  ,67.387  ,0
2879  ,0.7       ,2.9204  ,67.396  ,0
2880  ,0.7       ,2.4561  ,67.635  ,0
2881  ,0.7       ,3.1769  ,67.397  ,0
2882  ,0.7       ,3.4324  ,67.398  ,0
2883  ,0.7       ,2.9744  ,67.648  ,0
2884  ,0.7       ,3.6881  ,67.398  ,0
2885  ,0.7       ,3.943  ,67.398  ,0
2886  ,0.7       ,3.4866  ,67.649  ,0
2887  ,0.7       ,4.1986  ,67.398  ,0
2888  ,0.7       ,4.4534  ,67.398  ,0
2889  ,0.7       ,3.9979  ,67.65  ,0
2890  ,0.7       ,4.709  ,67.398  ,0
2891  ,0.7       ,4.9636  ,67.398  ,0
2892  ,0.7       ,4.5091  ,67.65  ,0
2893  ,0.7       ,5.2189  ,67.398  ,0
2894  ,0.7       ,5.4727  ,67.398  ,0
2895  ,0.7       ,5.0199  ,67.65  ,0
2896  ,0.7       ,5.7264  ,67.398  ,0
2897  ,0.7       ,5.9771  ,67.398  ,0
2898  ,0.7       ,5.5289  ,67.65  ,0
2899  ,0.7       ,6.2242  ,67.398  ,0
2900  ,0.7       ,6.0297  ,67.65  ,0
2901  ,0.7       ,0.50877  ,67.901  ,0
2902  ,0.7       ,0.73248  ,67.925  ,0
2903  ,0.7       ,1.0458  ,67.923  ,0
2904  ,0.7       ,0.71819  ,68.177  ,0
2905  ,0.7       ,1.2847  ,67.832  ,0
2906  ,0.7       ,1.5447  ,67.813  ,0
2907  ,0.7       ,1.1807  ,68.109  ,0
2908  ,0.7       ,1.7624  ,67.853  ,0
2909  ,0.7       ,2.0247  ,67.862  ,0
2910  ,0.7       ,1.6373  ,68.059  ,0
2911  ,0.7       ,2.2772  ,67.883  ,0
2912  ,0.7       ,2.5389  ,67.894  ,0
2913  ,0.7       ,2.1074  ,68.121  ,0
2914  ,0.7       ,2.7942  ,67.899  ,0
2915  ,0.7       ,3.0507  ,67.901  ,0
2916  ,0.7       ,2.6152  ,68.147  ,0
2917  ,0.7       ,3.3048  ,67.901  ,0
2918  ,0.7       ,3.5605  ,67.901  ,0
2919  ,0.7       ,3.1246  ,68.152  ,0
2920  ,0.7       ,3.8145  ,67.901  ,0
2921  ,0.7       ,4.0702  ,67.901  ,0
2922  ,0.7       ,3.6328  ,68.153  ,0
2923  ,0.7       ,4.3242  ,67.901  ,0
2924  ,0.7       ,4.5797  ,67.901  ,0
2925  ,0.7       ,4.1408  ,68.153  ,0
2926  ,0.7       ,4.8337  ,67.901  ,0
2927  ,0.7       ,5.0889  ,67.901  ,0
2928  ,0.7       ,4.6487  ,68.153  ,0
2929  ,0.7       ,5.3426  ,67.901  ,0
2930  ,0.7       ,5.5963  ,67.901  ,0
2931  ,0.7       ,5.1564  ,68.153  ,0
2932  ,0.7       ,5.8494  ,67.901  ,0
2933  ,0.7       ,6.0965  ,67.901  ,0
2934  ,0.7       ,5.6632  ,68.153  ,0
2935  ,0.7       ,6.3524  ,67.901  ,0
2936  ,0.7       ,6.1722  ,68.153  ,0
2937  ,0.5       ,0.75  ,90.786  ,0
2938  ,0.5       ,1.25  ,90.786  ,0
2939  ,0.5       ,1.7599  ,90.711  ,0
2940  ,0.5       ,2.2599  ,90.711  ,0
2941  ,0.5       ,2.8092  ,90.766  ,0
2942  ,0.5       ,3.3092  ,90.766  ,0
2943  ,0.5       ,3.7677  ,90.717  ,0
2944  ,0.5       ,4.2677  ,90.717  ,0
2945  ,0.5       ,4.75  ,90.786  ,0
2946  ,0.5       ,5.25  ,90.786  ,0
2947  ,0.5       ,5.75  ,90.786  ,0
2948  ,0.5       ,6.25  ,90.786  ,0
2949  ,0.5       ,6.75  ,90.786  ,0
2950  ,0.5       ,7.25  ,90.786  ,0
2951  ,0.5       ,0.5  ,90.535  ,0
2952  ,0.5       ,0.75  ,90.535  ,0
2953  ,0.5       ,1.0013  ,90.546  ,0
2954  ,0.5       ,0.7513  ,90.295  ,0
2955  ,0.5       ,1.2563  ,90.516  ,0
2956  ,0.5       ,1.5063  ,90.516  ,0
2957  ,0.5       ,1.7662  ,90.441  ,0
2958  ,0.5       ,1.2576  ,90.276  ,0
2959  ,0.5       ,2.0622  ,90.39  ,0
2960  ,0.5       ,1.8086  ,90.195  ,0
2961  ,0.5       ,2.2685  ,90.444  ,0
2962  ,0.5       ,2.5086  ,90.519  ,0
2963  ,0.5       ,2.3109  ,90.199  ,0
2964  ,0.5       ,2.7631  ,90.537  ,0
2965  ,0.5       ,3.0723  ,90.516  ,0
2966  ,0.5       ,2.7716  ,90.27  ,0
2967  ,0.5       ,3.3597  ,90.532  ,0
2968  ,0.5       ,3.5505  ,90.552  ,0
2969  ,0.5       ,3.8181  ,90.483  ,0
2970  ,0.5       ,3.3135  ,90.302  ,0
2971  ,0.5       ,4.0782  ,90.405  ,0
2972  ,0.5       ,3.861  ,90.24  ,0
2973  ,0.5       ,4.2773  ,90.449  ,0
2974  ,0.5       ,4.5096  ,90.518  ,0
2975  ,0.5       ,4.3201  ,90.206  ,0
2976  ,0.5       ,4.7506  ,90.534  ,0
2977  ,0.5       ,5.0006  ,90.534  ,0
2978  ,0.5       ,4.7602  ,90.265  ,0
2979  ,0.5       ,5.25  ,90.535  ,0
2980  ,0.5       ,5.5  ,90.535  ,0
2981  ,0.5       ,5.2506  ,90.282  ,0
2982  ,0.5       ,5.75  ,90.535  ,0
2983  ,0.5       ,6  ,90.535  ,0
2984  ,0.5       ,5.75  ,90.283  ,0
2985  ,0.5       ,6.25  ,90.535  ,0
2986  ,0.5       ,6.5  ,90.535  ,0
2987  ,0.5       ,6.25  ,90.283  ,0
2988  ,0.5       ,6.75  ,90.535  ,0
2989  ,0.5       ,7  ,90.535  ,0
2990  ,0.5       ,6.75  ,90.283  ,0
2991  ,0.5       ,7.25  ,90.535  ,0
2992  ,0.5       ,7.5  ,90.535  ,0
2993  ,0.5       ,7.25  ,90.283  ,0
2994  ,0.5       ,0.5  ,90.032  ,0
2995  ,0.5       ,0.74984  ,90.098  ,0
2996  ,0.5       ,1.0011  ,90.11  ,0
2997  ,0.5       ,1.2561  ,90.079  ,0
2998  ,0.5       ,0.74984  ,89.847  ,0
2999  ,0.5       ,1.5014  ,89.922  ,0
3000  ,0.5       ,1.245  ,89.755  ,0
3001  ,0.5       ,1.7584  ,89.983  ,0
3002  ,0.5       ,2.0544  ,89.932  ,0
3003  ,0.5       ,1.7472  ,89.659  ,0
3004  ,0.5       ,2.3072  ,89.955  ,0
3005  ,0.5       ,2.5135  ,90.009  ,0
3006  ,0.5       ,2.257  ,89.743  ,0
3007  ,0.5       ,2.7514  ,90.027  ,0
3008  ,0.5       ,3.0059  ,90.044  ,0
3009  ,0.5       ,2.7478  ,89.783  ,0
3010  ,0.5       ,3.2576  ,90.039  ,0
3011  ,0.5       ,3.545  ,90.055  ,0
3012  ,0.5       ,3.2374  ,89.796  ,0
3013  ,0.5       ,3.8081  ,90.038  ,0
3014  ,0.5       ,4.0681  ,89.96  ,0
3015  ,0.5       ,3.7522  ,89.775  ,0
3016  ,0.5       ,4.3178  ,89.961  ,0
3017  ,0.5       ,4.5169  ,90.005  ,0
3018  ,0.5       ,4.2649  ,89.759  ,0
3019  ,0.5       ,4.7605  ,90.013  ,0
3020  ,0.5       ,5.0015  ,90.029  ,0
3021  ,0.5       ,4.7582  ,89.769  ,0
3022  ,0.5       ,5.2506  ,90.031  ,0
3023  ,0.5       ,5.5  ,90.032  ,0
3024  ,0.5       ,5.2509  ,89.779  ,0
3025  ,0.5       ,5.75  ,90.032  ,0
3026  ,0.5       ,6  ,90.032  ,0
3027  ,0.5       ,5.75  ,89.78  ,0
3028  ,0.5       ,6.25  ,90.032  ,0
3029  ,0.5       ,6.5  ,90.032  ,0
3030  ,0.5       ,6.25  ,89.78  ,0
3031  ,0.5       ,6.75  ,90.032  ,0
3032  ,0.5       ,7  ,90.032  ,0
3033  ,0.5       ,6.75  ,89.78  ,0
3034  ,0.5       ,7.25  ,90.032  ,0
3035  ,0.5       ,7.5  ,90.032  ,0
3036  ,0.5       ,7.25  ,89.78  ,0
3037  ,0.5       ,0.5  ,89.529  ,0
3038  ,0.5       ,0.74913  ,89.524  ,0
3039  ,0.5       ,0.99897  ,89.59  ,0
3040  ,0.5       ,1.2442  ,89.433  ,0
3041  ,0.5       ,0.74913  ,89.272  ,0
3042  ,0.5       ,1.4881  ,89.404  ,0
3043  ,0.5       ,1.2421  ,89.239  ,0
3044  ,0.5       ,1.716  ,89.378  ,0
3045  ,0.5       ,1.973  ,89.439  ,0
3046  ,0.5       ,1.7139  ,89.184  ,0
3047  ,0.5       ,2.2494  ,89.492  ,0
3048  ,0.5       ,2.5022  ,89.515  ,0
3049  ,0.5       ,2.2182  ,89.211  ,0
3050  ,0.5       ,2.7527  ,89.536  ,0
3051  ,0.5       ,2.9907  ,89.553  ,0
3052  ,0.5       ,2.7451  ,89.285  ,0
3053  ,0.5       ,3.1935  ,89.59  ,0
3054  ,0.5       ,3.4452  ,89.586  ,0
3055  ,0.5       ,3.1985  ,89.343  ,0
3056  ,0.5       ,3.716  ,89.5  ,0
3057  ,0.5       ,3.979  ,89.483  ,0
3058  ,0.5       ,3.6721  ,89.294  ,0
3059  ,0.5       ,4.2551  ,89.51  ,0
3060  ,0.5       ,4.5048  ,89.511  ,0
3061  ,0.5       ,4.219  ,89.235  ,0
3062  ,0.5       ,4.7574  ,89.518  ,0
3063  ,0.5       ,5.0011  ,89.526  ,0
3064  ,0.5       ,4.7477  ,89.268  ,0
3065  ,0.5       ,5.2509  ,89.527  ,0
3066  ,0.5       ,5.5  ,89.529  ,0
3067  ,0.5       ,5.2501  ,89.276  ,0
3068  ,0.5       ,5.75  ,89.529  ,0
3069  ,0.5       ,6  ,89.529  ,0
3070  ,0.5       ,5.75  ,89.277  ,0
3071  ,0.5       ,6.25  ,89.529  ,0
3072  ,0.5       ,6.5  ,89.529  ,0
3073  ,0.5       ,6.25  ,89.277  ,0
3074  ,0.5       ,6.75  ,89.529  ,0
3075  ,0.5       ,7  ,89.529  ,0
3076  ,0.5       ,6.75  ,89.277  ,0
3077  ,0.5       ,7.25  ,89.529  ,0
3078  ,0.5       ,7.5  ,89.529  ,0
3079  ,0.5       ,7.25  ,89.277  ,0
3080  ,0.5       ,0.5  ,89.026  ,0
3081  ,0.5       ,0.74913  ,89.021  ,0
3082  ,0.5       ,0.99971  ,89.036  ,0
3083  ,0.5       ,0.75059  ,88.789  ,0
3084  ,0.5       ,1.2516  ,89.006  ,0
3085  ,0.5       ,1.4954  ,88.977  ,0
3086  ,0.5       ,1.7234  ,88.951  ,0
3087  ,0.5       ,1.2531  ,88.774  ,0
3088  ,0.5       ,2.0171  ,88.902  ,0
3089  ,0.5       ,1.7987  ,88.695  ,0
3090  ,0.5       ,2.224  ,88.953  ,0
3091  ,0.5       ,2.5004  ,89.006  ,0
3092  ,0.5       ,2.2993  ,88.698  ,0
3093  ,0.5       ,2.7528  ,89.025  ,0
3094  ,0.5       ,3.0033  ,89.046  ,0
3095  ,0.5       ,2.7586  ,88.768  ,0
3096  ,0.5       ,3.2829  ,89.071  ,0
3097  ,0.5       ,3.4858  ,89.108  ,0
3098  ,0.5       ,3.7565  ,89.022  ,0
3099  ,0.5       ,3.2906  ,88.811  ,0
3100  ,0.5       ,4.0245  ,88.938  ,0
3101  ,0.5       ,3.8382  ,88.752  ,0
3102  ,0.5       ,4.2252  ,88.978  ,0
3103  ,0.5       ,4.5013  ,89.005  ,0
3104  ,0.5       ,4.3069  ,88.708  ,0
3105  ,0.5       ,4.7476  ,89.017  ,0
3106  ,0.5       ,5.0002  ,89.023  ,0
3107  ,0.5       ,4.7538  ,88.76  ,0
3108  ,0.5       ,5.2501  ,89.025  ,0
3109  ,0.5       ,5.5  ,89.026  ,0
3110  ,0.5       ,5.2501  ,88.773  ,0
3111  ,0.5       ,5.75  ,89.026  ,0
3112  ,0.5       ,6  ,89.026  ,0
3113  ,0.5       ,5.75  ,88.774  ,0
3114  ,0.5       ,6.25  ,89.026  ,0
3115  ,0.5       ,6.5  ,89.026  ,0
3116  ,0.5       ,6.25  ,88.774  ,0
3117  ,0.5       ,6.75  ,89.026  ,0
3118  ,0.5       ,7  ,89.026  ,0
3119  ,0.5       ,6.75  ,88.774  ,0
3120  ,0.5       ,7.25  ,89.026  ,0
3121  ,0.5       ,7.5  ,89.026  ,0
3122  ,0.5       ,7.25  ,88.774  ,0
3123  ,0.5       ,0.5  ,88.523  ,0
3124  ,0.5       ,0.75019  ,88.602  ,0
3125  ,0.5       ,1.0008  ,88.616  ,0
3126  ,0.5       ,1.2527  ,88.586  ,0
3127  ,0.5       ,0.75019  ,88.35  ,0
3128  ,0.5       ,1.5016  ,88.423  ,0
3129  ,0.5       ,1.2493  ,88.266  ,0
3130  ,0.5       ,1.7581  ,88.484  ,0
3131  ,0.5       ,2.0518  ,88.435  ,0
3132  ,0.5       ,1.7547  ,88.163  ,0
3133  ,0.5       ,2.3006  ,88.452  ,0
3134  ,0.5       ,2.5075  ,88.503  ,0
3135  ,0.5       ,2.26  ,88.24  ,0
3136  ,0.5       ,2.751  ,88.512  ,0
3137  ,0.5       ,3.0034  ,88.531  ,0
3138  ,0.5       ,2.7523  ,88.266  ,0
3139  ,0.5       ,3.2592  ,88.533  ,0
3140  ,0.5       ,3.5388  ,88.557  ,0
3141  ,0.5       ,3.2516  ,88.277  ,0
3142  ,0.5       ,3.7966  ,88.549  ,0
3143  ,0.5       ,4.0646  ,88.465  ,0
3144  ,0.5       ,3.7652  ,88.27  ,0
3145  ,0.5       ,4.3106  ,88.462  ,0
3146  ,0.5       ,4.5113  ,88.502  ,0
3147  ,0.5       ,4.269  ,88.259  ,0
3148  ,0.5       ,4.7544  ,88.509  ,0
3149  ,0.5       ,5.0008  ,88.52  ,0
3150  ,0.5       ,4.7582  ,88.262  ,0
3151  ,0.5       ,5.2501  ,88.521  ,0
3152  ,0.5       ,5.5  ,88.523  ,0
3153  ,0.5       ,5.2507  ,88.27  ,0
3154  ,0.5       ,5.75  ,88.523  ,0
3155  ,0.5       ,6  ,88.523  ,0
3156  ,0.5       ,5.75  ,88.271  ,0
3157  ,0.5       ,6.25  ,88.523  ,0
3158  ,0.5       ,6.5  ,88.523  ,0
3159  ,0.5       ,6.25  ,88.271  ,0
3160  ,0.5       ,6.75  ,88.523  ,0
3161  ,0.5       ,7  ,88.523  ,0
3162  ,0.5       ,6.75  ,88.271  ,0
3163  ,0.5       ,7.25  ,88.523  ,0
3164  ,0.5       ,7.5  ,88.523  ,0
3165  ,0.5       ,7.25  ,88.271  ,0
3166  ,0.5       ,0.5  ,88.02  ,0
3167  ,0.5       ,0.74873  ,88.084  ,0
3168  ,0.5       ,0.99892  ,88.163  ,0
3169  ,0.5       ,1.2478  ,88  ,0
3170  ,0.5       ,0.74873  ,87.833  ,0
3171  ,0.5       ,1.4921  ,87.834  ,0
3172  ,0.5       ,1.2417  ,87.731  ,0
3173  ,0.5       ,1.743  ,87.902  ,0
3174  ,0.5       ,1.9996  ,87.963  ,0
3175  ,0.5       ,1.737  ,87.634  ,0
3176  ,0.5       ,2.253  ,87.995  ,0
3177  ,0.5       ,2.5017  ,88.012  ,0
3178  ,0.5       ,2.2413  ,87.734  ,0
3179  ,0.5       ,2.7438  ,88.023  ,0
3180  ,0.5       ,2.9874  ,88.033  ,0
3181  ,0.5       ,2.7368  ,87.778  ,0
3182  ,0.5       ,3.2337  ,88.025  ,0
3183  ,0.5       ,3.4894  ,88.026  ,0
3184  ,0.5       ,3.2252  ,87.782  ,0
3185  ,0.5       ,3.748  ,88.017  ,0
3186  ,0.5       ,4.0058  ,88.009  ,0
3187  ,0.5       ,3.7301  ,87.765  ,0
3188  ,0.5       ,4.2615  ,88.013  ,0
3189  ,0.5       ,4.5075  ,88.009  ,0
3190  ,0.5       ,4.2444  ,87.759  ,0
3191  ,0.5       ,4.7578  ,88.011  ,0
3192  ,0.5       ,5.001  ,88.018  ,0
3193  ,0.5       ,4.7503  ,87.765  ,0
3194  ,0.5       ,5.2507  ,88.019  ,0
3195  ,0.5       ,5.5  ,88.02  ,0
3196  ,0.5       ,5.2503  ,87.768  ,0
3197  ,0.5       ,5.75  ,88.02  ,0
3198  ,0.5       ,6  ,88.02  ,0
3199  ,0.5       ,5.75  ,87.768  ,0
3200  ,0.5       ,6.25  ,88.02  ,0
3201  ,0.5       ,6.5  ,88.02  ,0
3202  ,0.5       ,6.25  ,87.768  ,0
3203  ,0.5       ,6.75  ,88.02  ,0
3204  ,0.5       ,7  ,88.02  ,0
3205  ,0.5       ,6.75  ,87.768  ,0
3206  ,0.5       ,7.25  ,88.02  ,0
3207  ,0.5       ,7.5  ,88.02  ,0
3208  ,0.5       ,7.25  ,87.768  ,0
3209  ,0.5       ,0.5  ,87.517  ,0
3210  ,0.5       ,0.74878  ,87.51  ,0
3211  ,0.5       ,0.99751  ,87.575  ,0
3212  ,0.5       ,1.2418  ,87.409  ,0
3213  ,0.5       ,0.74878  ,87.259  ,0
3214  ,0.5       ,1.4853  ,87.38  ,0
3215  ,0.5       ,1.2411  ,87.224  ,0
3216  ,0.5       ,1.7127  ,87.355  ,0
3217  ,0.5       ,1.9636  ,87.423  ,0
3218  ,0.5       ,1.712  ,87.169  ,0
3219  ,0.5       ,2.2394  ,87.478  ,0
3220  ,0.5       ,2.4928  ,87.51  ,0
3221  ,0.5       ,2.2152  ,87.198  ,0
3222  ,0.5       ,2.7436  ,87.531  ,0
3223  ,0.5       ,2.9857  ,87.542  ,0
3224  ,0.5       ,2.7417  ,87.274  ,0
3225  ,0.5       ,3.1887  ,87.578  ,0
3226  ,0.5       ,3.435  ,87.571  ,0
3227  ,0.5       ,3.1955  ,87.331  ,0
3228  ,0.5       ,3.7055  ,87.485  ,0
3229  ,0.5       ,3.964  ,87.475  ,0
3230  ,0.5       ,3.669  ,87.281  ,0
3231  ,0.5       ,4.2406  ,87.503  ,0
3232  ,0.5       ,4.4962  ,87.507  ,0
3233  ,0.5       ,4.2159  ,87.223  ,0
3234  ,0.5       ,4.7498  ,87.514  ,0
3235  ,0.5       ,5  ,87.516  ,0
3236  ,0.5       ,4.7459  ,87.258  ,0
3237  ,0.5       ,5.2503  ,87.516  ,0
3238  ,0.5       ,5.5  ,87.517  ,0
3239  ,0.5       ,5.2497  ,87.265  ,0
3240  ,0.5       ,5.75  ,87.517  ,0
3241  ,0.5       ,6  ,87.517  ,0
3242  ,0.5       ,5.75  ,87.265  ,0
3243  ,0.5       ,6.25  ,87.517  ,0
3244  ,0.5       ,6.5  ,87.517  ,0
3245  ,0.5       ,6.25  ,87.265  ,0
3246  ,0.5       ,6.75  ,87.517  ,0
3247  ,0.5       ,7  ,87.517  ,0
3248  ,0.5       ,6.75  ,87.265  ,0
3249  ,0.5       ,7.25  ,87.517  ,0
3250  ,0.5       ,7.5  ,87.517  ,0
3251  ,0.5       ,7.25  ,87.265  ,0
3252  ,0.5       ,0.5  ,87.014  ,0
3253  ,0.5       ,0.74878  ,87.007  ,0
3254  ,0.5       ,0.99894  ,87.019  ,0
3255  ,0.5       ,0.75016  ,86.774  ,0
3256  ,0.5       ,1.2501  ,86.989  ,0
3257  ,0.5       ,1.4936  ,86.96  ,0
3258  ,0.5       ,1.721  ,86.935  ,0
3259  ,0.5       ,1.2514  ,86.756  ,0
3260  ,0.5       ,2.0147  ,86.888  ,0
3261  ,0.5       ,1.7963  ,86.679  ,0
3262  ,0.5       ,2.2213  ,86.942  ,0
3263  ,0.5       ,2.497  ,86.997  ,0
3264  ,0.5       ,2.2965  ,86.686  ,0
3265  ,0.5       ,2.7479  ,87.016  ,0
3266  ,0.5       ,2.9987  ,87.037  ,0
3267  ,0.5       ,2.7539  ,86.759  ,0
3268  ,0.5       ,3.2788  ,87.059  ,0
3269  ,0.5       ,3.4818  ,87.095  ,0
3270  ,0.5       ,3.7523  ,87.01  ,0
3271  ,0.5       ,3.285  ,86.801  ,0
3272  ,0.5       ,4.0214  ,86.924  ,0
3273  ,0.5       ,3.8343  ,86.739  ,0
3274  ,0.5       ,4.2232  ,86.966  ,0
3275  ,0.5       ,4.4997  ,86.994  ,0
3276  ,0.5       ,4.3052  ,86.695  ,0
3277  ,0.5       ,4.7463  ,87.005  ,0
3278  ,0.5       ,4.9998  ,87.012  ,0
3279  ,0.5       ,4.7536  ,86.748  ,0
3280  ,0.5       ,5.2497  ,87.013  ,0
3281  ,0.5       ,5.5  ,87.014  ,0
3282  ,0.5       ,5.2501  ,86.761  ,0
3283  ,0.5       ,5.75  ,87.014  ,0
3284  ,0.5       ,6  ,87.014  ,0
3285  ,0.5       ,5.75  ,86.762  ,0
3286  ,0.5       ,6.25  ,87.014  ,0
3287  ,0.5       ,6.5  ,87.014  ,0
3288  ,0.5       ,6.25  ,86.762  ,0
3289  ,0.5       ,6.75  ,87.014  ,0
3290  ,0.5       ,7  ,87.014  ,0
3291  ,0.5       ,6.75  ,86.762  ,0
3292  ,0.5       ,7.25  ,87.014  ,0
3293  ,0.5       ,7.5  ,87.014  ,0
3294  ,0.5       ,7.25  ,86.762  ,0
3295  ,0.5       ,0.5  ,86.511  ,0
3296  ,0.5       ,0.74949  ,86.577  ,0
3297  ,0.5       ,0.99965  ,86.589  ,0
3298  ,0.5       ,1.2508  ,86.559  ,0
3299  ,0.5       ,0.74949  ,86.326  ,0
3300  ,0.5       ,1.4961  ,86.402  ,0
3301  ,0.5       ,1.2444  ,86.235  ,0
3302  ,0.5       ,1.7527  ,86.463  ,0
3303  ,0.5       ,2.0464  ,86.416  ,0
3304  ,0.5       ,1.7463  ,86.139  ,0
3305  ,0.5       ,2.2991  ,86.44  ,0
3306  ,0.5       ,2.5057  ,86.493  ,0
3307  ,0.5       ,2.2556  ,86.223  ,0
3308  ,0.5       ,2.7433  ,86.511  ,0
3309  ,0.5       ,2.9942  ,86.53  ,0
3310  ,0.5       ,2.7459  ,86.264  ,0
3311  ,0.5       ,3.2452  ,86.526  ,0
3312  ,0.5       ,3.5254  ,86.548  ,0
3313  ,0.5       ,3.2346  ,86.277  ,0
3314  ,0.5       ,3.7887  ,86.532  ,0
3315  ,0.5       ,4.0578  ,86.447  ,0
3316  ,0.5       ,3.7489  ,86.256  ,0
3317  ,0.5       ,4.3083  ,86.447  ,0
3318  ,0.5       ,4.5101  ,86.488  ,0
3319  ,0.5       ,4.2626  ,86.24  ,0
3320  ,0.5       ,4.7541  ,86.496  ,0
3321  ,0.5       ,5.0007  ,86.508  ,0
3322  ,0.5       ,4.7572  ,86.249  ,0
3323  ,0.5       ,5.2501  ,86.51  ,0
3324  ,0.5       ,5.5  ,86.511  ,0
3325  ,0.5       ,5.2506  ,86.258  ,0
3326  ,0.5       ,5.75  ,86.511  ,0
3327  ,0.5       ,6  ,86.511  ,0
3328  ,0.5       ,5.75  ,86.259  ,0
3329  ,0.5       ,6.25  ,86.511  ,0
3330  ,0.5       ,6.5  ,86.511  ,0
3331  ,0.5       ,6.25  ,86.259  ,0
3332  ,0.5       ,6.75  ,86.511  ,0
3333  ,0.5       ,7  ,86.511  ,0
3334  ,0.5       ,6.75  ,86.259  ,0
3335  ,0.5       ,7.25  ,86.511  ,0
3336  ,0.5       ,7.5  ,86.511  ,0
3337  ,0.5       ,7.25  ,86.259  ,0
3338  ,0.5       ,0.5  ,86.008  ,0
3339  ,0.5       ,0.74925  ,86.003  ,0
3340  ,0.5       ,0.99874  ,86.07  ,0
3341  ,0.5       ,1.2441  ,85.912  ,0
3342  ,0.5       ,0.74925  ,85.752  ,0
3343  ,0.5       ,1.488  ,85.884  ,0
3344  ,0.5       ,1.2424  ,85.719  ,0
3345  ,0.5       ,1.7162  ,85.857  ,0
3346  ,0.5       ,1.9728  ,85.918  ,0
3347  ,0.5       ,1.7145  ,85.664  ,0
3348  ,0.5       ,2.2492  ,85.971  ,0
3349  ,0.5       ,2.5019  ,85.994  ,0
3350  ,0.5       ,2.2191  ,85.69  ,0
3351  ,0.5       ,2.7523  ,86.016  ,0
3352  ,0.5       ,2.99  ,86.033  ,0
3353  ,0.5       ,2.7459  ,85.764  ,0
3354  ,0.5       ,3.1927  ,86.07  ,0
3355  ,0.5       ,3.4437  ,86.066  ,0
3356  ,0.5       ,3.199  ,85.822  ,0
3357  ,0.5       ,3.7144  ,85.98  ,0
3358  ,0.5       ,3.9777  ,85.963  ,0
3359  ,0.5       ,3.6724  ,85.773  ,0
3360  ,0.5       ,4.2536  ,85.99  ,0
3361  ,0.5       ,4.5041  ,85.991  ,0
3362  ,0.5       ,4.2191  ,85.714  ,0
3363  ,0.5       ,4.7567  ,85.997  ,0
3364  ,0.5       ,5.0007  ,86.005  ,0
3365  ,0.5       ,4.7477  ,85.748  ,0
3366  ,0.5       ,5.2506  ,86.007  ,0
3367  ,0.5       ,5.5  ,86.008  ,0
3368  ,0.5       ,5.2501  ,85.755  ,0
3369  ,0.5       ,5.75  ,86.008  ,0
3370  ,0.5       ,6  ,86.008  ,0
3371  ,0.5       ,5.75  ,85.756  ,0
3372  ,0.5       ,6.25  ,86.008  ,0
3373  ,0.5       ,6.5  ,86.008  ,0
3374  ,0.5       ,6.25  ,85.756  ,0
3375  ,0.5       ,6.75  ,86.008  ,0
3376  ,0.5       ,7  ,86.008  ,0
3377  ,0.5       ,6.75  ,85.756  ,0
3378  ,0.5       ,7.25  ,86.008  ,0
3379  ,0.5       ,7.5  ,86.008  ,0
3380  ,0.5       ,7.25  ,85.756  ,0
3381  ,0.5       ,0.5  ,85.505  ,0
3382  ,0.5       ,0.74925  ,85.5  ,0
3383  ,0.5       ,1.0001  ,85.516  ,0
3384  ,0.5       ,0.75086  ,85.269  ,0
3385  ,0.5       ,1.2524  ,85.486  ,0
3386  ,0.5       ,1.4964  ,85.458  ,0
3387  ,0.5       ,1.7245  ,85.431  ,0
3388  ,0.5       ,1.254  ,85.255  ,0
3389  ,0.5       ,2.0187  ,85.381  ,0
3390  ,0.5       ,1.8005  ,85.175  ,0
3391  ,0.5       ,2.2258  ,85.432  ,0
3392  ,0.5       ,2.5022  ,85.484  ,0
3393  ,0.5       ,2.3018  ,85.176  ,0
3394  ,0.5       ,2.7546  ,85.504  ,0
3395  ,0.5       ,3.0051  ,85.525  ,0
3396  ,0.5       ,2.7613  ,85.246  ,0
3397  ,0.5       ,3.284  ,85.55  ,0
3398  ,0.5       ,3.4867  ,85.588  ,0
3399  ,0.5       ,3.7574  ,85.501  ,0
3400  ,0.5       ,3.2927  ,85.291  ,0
3401  ,0.5       ,4.025  ,85.417  ,0
3402  ,0.5       ,3.8393  ,85.232  ,0
3403  ,0.5       ,4.2254  ,85.458  ,0
3404  ,0.5       ,4.5014  ,85.485  ,0
3405  ,0.5       ,4.3073  ,85.188  ,0
3406  ,0.5       ,4.7476  ,85.496  ,0
3407  ,0.5       ,5.0002  ,85.503  ,0
3408  ,0.5       ,4.7539  ,85.24  ,0
3409  ,0.5       ,5.2501  ,85.504  ,0
3410  ,0.5       ,5.5  ,85.505  ,0
3411  ,0.5       ,5.2501  ,85.252  ,0
3412  ,0.5       ,5.75  ,85.505  ,0
3413  ,0.5       ,6  ,85.505  ,0
3414  ,0.5       ,5.75  ,85.254  ,0
3415  ,0.5       ,6.25  ,85.505  ,0
3416  ,0.5       ,6.5  ,85.505  ,0
3417  ,0.5       ,6.25  ,85.254  ,0
3418  ,0.5       ,6.75  ,85.505  ,0
3419  ,0.5       ,7  ,85.505  ,0
3420  ,0.5       ,6.75  ,85.254  ,0
3421  ,0.5       ,7.25  ,85.505  ,0
3422  ,0.5       ,7.5  ,85.505  ,0
3423  ,0.5       ,7.25  ,85.254  ,0
3424  ,0.5       ,0.5  ,85.002  ,0
3425  ,0.5       ,0.75079  ,85.084  ,0
3426  ,0.5       ,1.0016  ,85.1  ,0
3427  ,0.5       ,1.254  ,85.07  ,0
3428  ,0.5       ,0.75079  ,84.832  ,0
3429  ,0.5       ,1.5048  ,84.909  ,0
3430  ,0.5       ,1.2524  ,84.754  ,0
3431  ,0.5       ,1.761  ,84.965  ,0
3432  ,0.5       ,2.0551  ,84.915  ,0
3433  ,0.5       ,1.7594  ,84.649  ,0
3434  ,0.5       ,2.3047  ,84.929  ,0
3435  ,0.5       ,2.5118  ,84.979  ,0
3436  ,0.5       ,2.2651  ,84.718  ,0
3437  ,0.5       ,2.757  ,84.989  ,0
3438  ,0.5       ,3.0095  ,85.008  ,0
3439  ,0.5       ,2.76  ,84.741  ,0
3440  ,0.5       ,3.2644  ,85.012  ,0
3441  ,0.5       ,3.5434  ,85.037  ,0
3442  ,0.5       ,3.2601  ,84.755  ,0
3443  ,0.5       ,3.7989  ,85.03  ,0
3444  ,0.5       ,4.0665  ,84.946  ,0
3445  ,0.5       ,3.7705  ,84.751  ,0
3446  ,0.5       ,4.3112  ,84.941  ,0
3447  ,0.5       ,4.5116  ,84.982  ,0
3448  ,0.5       ,4.2708  ,84.739  ,0
3449  ,0.5       ,4.7545  ,84.988  ,0
3450  ,0.5       ,5.0008  ,84.999  ,0
3451  ,0.5       ,4.7585  ,84.742  ,0
3452  ,0.5       ,5.2501  ,85.001  ,0
3453  ,0.5       ,5.5  ,85.002  ,0
3454  ,0.5       ,5.2507  ,84.749  ,0
3455  ,0.5       ,5.75  ,85.002  ,0
3456  ,0.5       ,6  ,85.002  ,0
3457  ,0.5       ,5.75  ,84.751  ,0
3458  ,0.5       ,6.25  ,85.002  ,0
3459  ,0.5       ,6.5  ,85.002  ,0
3460  ,0.5       ,6.25  ,84.751  ,0
3461  ,0.5       ,6.75  ,85.002  ,0
3462  ,0.5       ,7  ,85.002  ,0
3463  ,0.5       ,6.75  ,84.751  ,0
3464  ,0.5       ,7.25  ,85.002  ,0
3465  ,0.5       ,7.5  ,85.002  ,0
3466  ,0.5       ,7.25  ,84.751  ,0
3467  ,0.5       ,0.5  ,84.499  ,0
3468  ,0.5       ,0.75016  ,84.579  ,0
3469  ,0.5       ,1.0009  ,84.661  ,0
3470  ,0.5       ,1.2518  ,84.5  ,0
3471  ,0.5       ,0.75016  ,84.327  ,0
3472  ,0.5       ,1.5018  ,84.331  ,0
3473  ,0.5       ,1.2503  ,84.239  ,0
3474  ,0.5       ,1.7523  ,84.394  ,0
3475  ,0.5       ,2.0085  ,84.449  ,0
3476  ,0.5       ,1.7509  ,84.132  ,0
3477  ,0.5       ,2.2588  ,84.472  ,0
3478  ,0.5       ,2.5084  ,84.486  ,0
3479  ,0.5       ,2.2517  ,84.217  ,0
3480  ,0.5       ,2.758  ,84.489  ,0
3481  ,0.5       ,3.0032  ,84.499  ,0
3482  ,0.5       ,2.7516  ,84.244  ,0
3483  ,0.5       ,3.2533  ,84.499  ,0
3484  ,0.5       ,3.5082  ,84.504  ,0
3485  ,0.5       ,3.2513  ,84.248  ,0
3486  ,0.5       ,3.7589  ,84.503  ,0
3487  ,0.5       ,4.0144  ,84.496  ,0
3488  ,0.5       ,3.7521  ,84.248  ,0
3489  ,0.5       ,4.2643  ,84.495  ,0
3490  ,0.5       ,4.509  ,84.491  ,0
3491  ,0.5       ,4.2526  ,84.247  ,0
3492  ,0.5       ,4.7582  ,84.491  ,0
3493  ,0.5       ,5.0011  ,84.497  ,0
3494  ,0.5       ,4.7517  ,84.247  ,0
3495  ,0.5       ,5.2507  ,84.498  ,0
3496  ,0.5       ,5.5  ,84.499  ,0
3497  ,0.5       ,5.2504  ,84.247  ,0
3498  ,0.5       ,5.75  ,84.499  ,0
3499  ,0.5       ,6  ,84.499  ,0
3500  ,0.5       ,5.75  ,84.248  ,0
3501  ,0.5       ,6.25  ,84.499  ,0
3502  ,0.5       ,6.5  ,84.499  ,0
3503  ,0.5       ,6.25  ,84.248  ,0
3504  ,0.5       ,6.75  ,84.499  ,0
3505  ,0.5       ,7  ,84.499  ,0
3506  ,0.5       ,6.75  ,84.248  ,0
3507  ,0.5       ,7.25  ,84.499  ,0
3508  ,0.5       ,7.5  ,84.499  ,0
3509  ,0.5       ,7.25  ,84.248  ,0
3510  ,0.5       ,0.5  ,83.996  ,0
3511  ,0.5       ,0.75  ,84.075  ,0
3512  ,0.5       ,1.0002  ,84.155  ,0
3513  ,0.5       ,1.2502  ,83.986  ,0
3514  ,0.5       ,0.75  ,83.824  ,0
3515  ,0.5       ,1.5002  ,83.818  ,0
3516  ,0.5       ,1.25  ,83.734  ,0
3517  ,0.5       ,1.7502  ,83.88  ,0
3518  ,0.5       ,2.0007  ,83.942  ,0
3519  ,0.5       ,1.75  ,83.628  ,0
3520  ,0.5       ,2.2507  ,83.966  ,0
3521  ,0.5       ,2.501  ,83.989  ,0
3522  ,0.5       ,2.25  ,83.714  ,0
3523  ,0.5       ,2.751  ,83.992  ,0
3524  ,0.5       ,3.0006  ,83.996  ,0
3525  ,0.5       ,2.75  ,83.741  ,0
3526  ,0.5       ,3.2506  ,83.996  ,0
3527  ,0.5       ,3.5007  ,83.996  ,0
3528  ,0.5       ,3.25  ,83.745  ,0
3529  ,0.5       ,3.7507  ,83.996  ,0
3530  ,0.5       ,4.0014  ,83.996  ,0
3531  ,0.5       ,3.75  ,83.745  ,0
3532  ,0.5       ,4.2514  ,83.996  ,0
3533  ,0.5       ,4.5012  ,83.995  ,0
3534  ,0.5       ,4.25  ,83.745  ,0
3535  ,0.5       ,4.7512  ,83.995  ,0
3536  ,0.5       ,5.0004  ,83.996  ,0
3537  ,0.5       ,4.75  ,83.745  ,0
3538  ,0.5       ,5.2504  ,83.996  ,0
3539  ,0.5       ,5.5  ,83.996  ,0
3540  ,0.5       ,5.25  ,83.745  ,0
3541  ,0.5       ,5.75  ,83.996  ,0
3542  ,0.5       ,6  ,83.996  ,0
3543  ,0.5       ,5.75  ,83.745  ,0
3544  ,0.5       ,6.25  ,83.996  ,0
3545  ,0.5       ,6.5  ,83.996  ,0
3546  ,0.5       ,6.25  ,83.745  ,0
3547  ,0.5       ,6.75  ,83.996  ,0
3548  ,0.5       ,7  ,83.996  ,0
3549  ,0.5       ,6.75  ,83.745  ,0
3550  ,0.5       ,7.25  ,83.996  ,0
3551  ,0.5       ,7.5  ,83.996  ,0
3552  ,0.5       ,7.25  ,83.745  ,0
3553  ,0.5       ,0.5  ,83.493  ,0
3554  ,0.5       ,0.75  ,83.572  ,0
3555  ,0.5       ,1  ,83.651  ,0
3556  ,0.5       ,1.25  ,83.482  ,0
3557  ,0.5       ,0.75  ,83.321  ,0
3558  ,0.5       ,1.5  ,83.314  ,0
3559  ,0.5       ,1.25  ,83.231  ,0
3560  ,0.5       ,1.75  ,83.376  ,0
3561  ,0.5       ,2  ,83.438  ,0
3562  ,0.5       ,1.75  ,83.125  ,0
3563  ,0.5       ,2.25  ,83.462  ,0
3564  ,0.5       ,2.5  ,83.486  ,0
3565  ,0.5       ,2.25  ,83.211  ,0
3566  ,0.5       ,2.75  ,83.49  ,0
3567  ,0.5       ,3  ,83.493  ,0
3568  ,0.5       ,2.75  ,83.238  ,0
3569  ,0.5       ,3.25  ,83.493  ,0
3570  ,0.5       ,3.5  ,83.493  ,0
3571  ,0.5       ,3.25  ,83.242  ,0
3572  ,0.5       ,3.75  ,83.493  ,0
3573  ,0.5       ,4  ,83.493  ,0
3574  ,0.5       ,3.75  ,83.242  ,0
3575  ,0.5       ,4.25  ,83.493  ,0
3576  ,0.5       ,4.5  ,83.493  ,0
3577  ,0.5       ,4.25  ,83.242  ,0
3578  ,0.5       ,4.75  ,83.493  ,0
3579  ,0.5       ,5  ,83.493  ,0
3580  ,0.5       ,4.75  ,83.242  ,0
3581  ,0.5       ,5.25  ,83.493  ,0
3582  ,0.5       ,5.5  ,83.493  ,0
3583  ,0.5       ,5.25  ,83.242  ,0
3584  ,0.5       ,5.75  ,83.493  ,0
3585  ,0.5       ,6  ,83.493  ,0
3586  ,0.5       ,5.75  ,83.242  ,0
3587  ,0.5       ,6.25  ,83.493  ,0
3588  ,0.5       ,6.5  ,83.493  ,0
3589  ,0.5       ,6.25  ,83.242  ,0
3590  ,0.5       ,6.75  ,83.493  ,0
3591  ,0.5       ,7  ,83.493  ,0
3592  ,0.5       ,6.75  ,83.242  ,0
3593  ,0.5       ,7.25  ,83.493  ,0
3594  ,0.5       ,7.5  ,83.493  ,0
3595  ,0.5       ,7.25  ,83.242  ,0
3596  ,0.5       ,0.5  ,82.99  ,0
3597  ,0.5       ,0.75  ,83.069  ,0
3598  ,0.5       ,1  ,83.148  ,0
3599  ,0.5       ,1.25  ,82.979  ,0
3600  ,0.5       ,0.75  ,82.818  ,0
3601  ,0.5       ,1.5  ,82.811  ,0
3602  ,0.5       ,1.25  ,82.728  ,0
3603  ,0.5       ,1.75  ,82.873  ,0
3604  ,0.5       ,2  ,82.935  ,0
3605  ,0.5       ,1.75  ,82.622  ,0
3606  ,0.5       ,2.25  ,82.959  ,0
3607  ,0.5       ,2.5  ,82.983  ,0
3608  ,0.5       ,2.25  ,82.708  ,0
3609  ,0.5       ,2.75  ,82.987  ,0
3610  ,0.5       ,3  ,82.99  ,0
3611  ,0.5       ,2.75  ,82.735  ,0
3612  ,0.5       ,3.25  ,82.99  ,0
3613  ,0.5       ,3.5  ,82.99  ,0
3614  ,0.5       ,3.25  ,82.739  ,0
3615  ,0.5       ,3.75  ,82.99  ,0
3616  ,0.5       ,4  ,82.99  ,0
3617  ,0.5       ,3.75  ,82.739  ,0
3618  ,0.5       ,4.25  ,82.99  ,0
3619  ,0.5       ,4.5  ,82.99  ,0
3620  ,0.5       ,4.25  ,82.739  ,0
3621  ,0.5       ,4.75  ,82.99  ,0
3622  ,0.5       ,5  ,82.99  ,0
3623  ,0.5       ,4.75  ,82.739  ,0
3624  ,0.5       ,5.25  ,82.99  ,0
3625  ,0.5       ,5.5  ,82.99  ,0
3626  ,0.5       ,5.25  ,82.739  ,0
3627  ,0.5       ,5.75  ,82.99  ,0
3628  ,0.5       ,6  ,82.99  ,0
3629  ,0.5       ,5.75  ,82.739  ,0
3630  ,0.5       ,6.25  ,82.99  ,0
3631  ,0.5       ,6.5  ,82.99  ,0
3632  ,0.5       ,6.25  ,82.739  ,0
3633  ,0.5       ,6.75  ,82.99  ,0
3634  ,0.5       ,7  ,82.99  ,0
3635  ,0.5       ,6.75  ,82.739  ,0
3636  ,0.5       ,7.25  ,82.99  ,0
3637  ,0.5       ,7.5  ,82.99  ,0
3638  ,0.5       ,7.25  ,82.739  ,0
3639  ,0.5       ,0.5  ,82.487  ,0
3640  ,0.5       ,0.75  ,82.566  ,0
3641  ,0.5       ,1  ,82.645  ,0
3642  ,0.5       ,1.25  ,82.477  ,0
3643  ,0.5       ,0.75  ,82.315  ,0
3644  ,0.5       ,1.5  ,82.308  ,0
3645  ,0.5       ,1.25  ,82.225  ,0
3646  ,0.5       ,1.75  ,82.37  ,0
3647  ,0.5       ,2  ,82.432  ,0
3648  ,0.5       ,1.75  ,82.119  ,0
3649  ,0.5       ,2.25  ,82.456  ,0
3650  ,0.5       ,2.5  ,82.48  ,0
3651  ,0.5       ,2.25  ,82.205  ,0
3652  ,0.5       ,2.75  ,82.484  ,0
3653  ,0.5       ,3  ,82.487  ,0
3654  ,0.5       ,2.75  ,82.232  ,0
3655  ,0.5       ,3.25  ,82.487  ,0
3656  ,0.5       ,3.5  ,82.487  ,0
3657  ,0.5       ,3.25  ,82.236  ,0
3658  ,0.5       ,3.75  ,82.487  ,0
3659  ,0.5       ,4  ,82.487  ,0
3660  ,0.5       ,3.75  ,82.236  ,0
3661  ,0.5       ,4.25  ,82.487  ,0
3662  ,0.5       ,4.5  ,82.487  ,0
3663  ,0.5       ,4.25  ,82.236  ,0
3664  ,0.5       ,4.75  ,82.487  ,0
3665  ,0.5       ,5  ,82.487  ,0
3666  ,0.5       ,4.75  ,82.236  ,0
3667  ,0.5       ,5.25  ,82.487  ,0
3668  ,0.5       ,5.5  ,82.487  ,0
3669  ,0.5       ,5.25  ,82.236  ,0
3670  ,0.5       ,5.75  ,82.487  ,0
3671  ,0.5       ,6  ,82.487  ,0
3672  ,0.5       ,5.75  ,82.236  ,0
3673  ,0.5       ,6.25  ,82.487  ,0
3674  ,0.5       ,6.5  ,82.487  ,0
3675  ,0.5       ,6.25  ,82.236  ,0
3676  ,0.5       ,6.75  ,82.487  ,0
3677  ,0.5       ,7  ,82.487  ,0
3678  ,0.5       ,6.75  ,82.236  ,0
3679  ,0.5       ,7.25  ,82.487  ,0
3680  ,0.5       ,7.5  ,82.487  ,0
3681  ,0.5       ,7.25  ,82.236  ,0
3682  ,0.5       ,0.5  ,81.984  ,0
3683  ,0.5       ,0.75  ,82.063  ,0
3684  ,0.5       ,1  ,82.142  ,0
3685  ,0.5       ,1.25  ,81.974  ,0
3686  ,0.5       ,0.75  ,81.812  ,0
3687  ,0.5       ,1.5  ,81.805  ,0
3688  ,0.5       ,1.25  ,81.722  ,0
3689  ,0.5       ,1.75  ,81.867  ,0
3690  ,0.5       ,2  ,81.929  ,0
3691  ,0.5       ,1.75  ,81.616  ,0
3692  ,0.5       ,2.25  ,81.953  ,0
3693  ,0.5       ,2.5  ,81.977  ,0
3694  ,0.5       ,2.25  ,81.702  ,0
3695  ,0.5       ,2.75  ,81.981  ,0
3696  ,0.5       ,3  ,81.984  ,0
3697  ,0.5       ,2.75  ,81.729  ,0
3698  ,0.5       ,3.25  ,81.984  ,0
3699  ,0.5       ,3.5  ,81.984  ,0
3700  ,0.5       ,3.25  ,81.733  ,0
3701  ,0.5       ,3.75  ,81.984  ,0
3702  ,0.5       ,4  ,81.984  ,0
3703  ,0.5       ,3.75  ,81.733  ,0
3704  ,0.5       ,4.25  ,81.984  ,0
3705  ,0.5       ,4.5  ,81.984  ,0
3706  ,0.5       ,4.25  ,81.733  ,0
3707  ,0.5       ,4.75  ,81.984  ,0
3708  ,0.5       ,5  ,81.984  ,0
3709  ,0.5       ,4.75  ,81.733  ,0
3710  ,0.5       ,5.25  ,81.984  ,0
3711  ,0.5       ,5.5  ,81.984  ,0
3712  ,0.5       ,5.25  ,81.733  ,0
3713  ,0.5       ,5.75  ,81.984  ,0
3714  ,0.5       ,6  ,81.984  ,0
3715  ,0.5       ,5.75  ,81.733  ,0
3716  ,0.5       ,6.25  ,81.984  ,0
3717  ,0.5       ,6.5  ,81.984  ,0
3718  ,0.5       ,6.25  ,81.733  ,0
3719  ,0.5       ,6.75  ,81.984  ,0
3720  ,0.5       ,7  ,81.984  ,0
3721  ,0.5       ,6.75  ,81.733  ,0
3722  ,0.5       ,7.25  ,81.984  ,0
3723  ,0.5       ,7.5  ,81.984  ,0
3724  ,0.5       ,7.25  ,81.733  ,0
3725  ,0.5       ,0.5  ,81.481  ,0
3726  ,0.5       ,0.75  ,81.56  ,0
3727  ,0.5       ,1  ,81.639  ,0
3728  ,0.5       ,1.25  ,81.471  ,0
3729  ,0.5       ,0.75  ,81.309  ,0
3730  ,0.5       ,1.5  ,81.302  ,0
3731  ,0.5       ,1.25  ,81.219  ,0
3732  ,0.5       ,1.75  ,81.364  ,0
3733  ,0.5       ,2  ,81.426  ,0
3734  ,0.5       ,1.75  ,81.113  ,0
3735  ,0.5       ,2.25  ,81.45  ,0
3736  ,0.5       ,2.5  ,81.474  ,0
3737  ,0.5       ,2.25  ,81.199  ,0
3738  ,0.5       ,2.75  ,81.478  ,0
3739  ,0.5       ,3  ,81.481  ,0
3740  ,0.5       ,2.75  ,81.226  ,0
3741  ,0.5       ,3.25  ,81.481  ,0
3742  ,0.5       ,3.5  ,81.481  ,0
3743  ,0.5       ,3.25  ,81.23  ,0
3744  ,0.5       ,3.75  ,81.481  ,0
3745  ,0.5       ,4  ,81.481  ,0
3746  ,0.5       ,3.75  ,81.23  ,0
3747  ,0.5       ,4.25  ,81.481  ,0
3748  ,0.5       ,4.5  ,81.481  ,0
3749  ,0.5       ,4.25  ,81.23  ,0
3750  ,0.5       ,4.75  ,81.481  ,0
3751  ,0.5       ,5  ,81.481  ,0
3752  ,0.5       ,4.75  ,81.23  ,0
3753  ,0.5       ,5.25  ,81.481  ,0
3754  ,0.5       ,5.5  ,81.481  ,0
3755  ,0.5       ,5.25  ,81.23  ,0
3756  ,0.5       ,5.75  ,81.481  ,0
3757  ,0.5       ,6  ,81.481  ,0
3758  ,0.5       ,5.75  ,81.23  ,0
3759  ,0.5       ,6.25  ,81.481  ,0
3760  ,0.5       ,6.5  ,81.481  ,0
3761  ,0.5       ,6.25  ,81.23  ,0
3762  ,0.5       ,6.75  ,81.481  ,0
3763  ,0.5       ,7  ,81.481  ,0
3764  ,0.5       ,6.75  ,81.23  ,0
3765  ,0.5       ,7.25  ,81.481  ,0
3766  ,0.5       ,7.5  ,81.481  ,0
3767  ,0.5       ,7.25  ,81.23  ,0
3768  ,0.5       ,0.5  ,80.978  ,0
3769  ,0.5       ,0.75  ,81.057  ,0
3770  ,0.5       ,1  ,81.136  ,0
3771  ,0.5       ,1.25  ,80.968  ,0
3772  ,0.5       ,0.75  ,80.806  ,0
3773  ,0.5       ,1.5  ,80.799  ,0
3774  ,0.5       ,1.25  ,80.716  ,0
3775  ,0.5       ,1.75  ,80.861  ,0
3776  ,0.5       ,2  ,80.924  ,0
3777  ,0.5       ,1.75  ,80.61  ,0
3778  ,0.5       ,2.25  ,80.947  ,0
3779  ,0.5       ,2.5  ,80.971  ,0
3780  ,0.5       ,2.25  ,80.696  ,0
3781  ,0.5       ,2.75  ,80.975  ,0
3782  ,0.5       ,3  ,80.978  ,0
3783  ,0.5       ,2.75  ,80.723  ,0
3784  ,0.5       ,3.25  ,80.978  ,0
3785  ,0.5       ,3.5  ,80.978  ,0
3786  ,0.5       ,3.25  ,80.727  ,0
3787  ,0.5       ,3.75  ,80.978  ,0
3788  ,0.5       ,4  ,80.978  ,0
3789  ,0.5       ,3.75  ,80.727  ,0
3790  ,0.5       ,4.25  ,80.978  ,0
3791  ,0.5       ,4.5  ,80.978  ,0
3792  ,0.5       ,4.25  ,80.727  ,0
3793  ,0.5       ,4.75  ,80.978  ,0
3794  ,0.5       ,5  ,80.978  ,0
3795  ,0.5       ,4.75  ,80.727  ,0
3796  ,0.5       ,5.25  ,80.978  ,0
3797  ,0.5       ,5.5  ,80.978  ,0
3798  ,0.5       ,5.25  ,80.727  ,0
3799  ,0.5       ,5.75  ,80.978  ,0
3800  ,0.5       ,6  ,80.978  ,0
3801  ,0.5       ,5.75  ,80.727  ,0
3802  ,0.5       ,6.25  ,80.978  ,0
3803  ,0.5       ,6.5  ,80.978  ,0
3804  ,0.5       ,6.25  ,80.727  ,0
3805  ,0.5       ,6.75  ,80.978  ,0
3806  ,0.5       ,7  ,80.978  ,0
3807  ,0.5       ,6.75  ,80.727  ,0
3808  ,0.5       ,7.25  ,80.978  ,0
3809  ,0.5       ,7.5  ,80.978  ,0
3810  ,0.5       ,7.25  ,80.727  ,0
3811  ,0.5       ,0.5  ,80.475  ,0
3812  ,0.5       ,0.75  ,80.554  ,0
3813  ,0.5       ,1  ,80.633  ,0
3814  ,0.5       ,1.25  ,80.465  ,0
3815  ,0.5       ,0.75  ,80.303  ,0
3816  ,0.5       ,1.5  ,80.296  ,0
3817  ,0.5       ,1.25  ,80.213  ,0
3818  ,0.5       ,1.75  ,80.358  ,0
3819  ,0.5       ,2  ,80.421  ,0
3820  ,0.5       ,1.75  ,80.107  ,0
3821  ,0.5       ,2.25  ,80.444  ,0
3822  ,0.5       ,2.5  ,80.468  ,0
3823  ,0.5       ,2.25  ,80.193  ,0
3824  ,0.5       ,2.75  ,80.472  ,0
3825  ,0.5       ,3  ,80.475  ,0
3826  ,0.5       ,2.75  ,80.22  ,0
3827  ,0.5       ,3.25  ,80.475  ,0
3828  ,0.5       ,3.5  ,80.475  ,0
3829  ,0.5       ,3.25  ,80.224  ,0
3830  ,0.5       ,3.75  ,80.475  ,0
3831  ,0.5       ,4  ,80.475  ,0
3832  ,0.5       ,3.75  ,80.224  ,0
3833  ,0.5       ,4.25  ,80.475  ,0
3834  ,0.5       ,4.5  ,80.475  ,0
3835  ,0.5       ,4.25  ,80.224  ,0
3836  ,0.5       ,4.75  ,80.475  ,0
3837  ,0.5       ,5  ,80.475  ,0
3838  ,0.5       ,4.75  ,80.224  ,0
3839  ,0.5       ,5.25  ,80.475  ,0
3840  ,0.5       ,5.5  ,80.475  ,0
3841  ,0.5       ,5.25  ,80.224  ,0
3842  ,0.5       ,5.75  ,80.475  ,0
3843  ,0.5       ,6  ,80.475  ,0
3844  ,0.5       ,5.75  ,80.224  ,0
3845  ,0.5       ,6.25  ,80.475  ,0
3846  ,0.5       ,6.5  ,80.475  ,0
3847  ,0.5       ,6.25  ,80.224  ,0
3848  ,0.5       ,6.75  ,80.475  ,0
3849  ,0.5       ,7  ,80.475  ,0
3850  ,0.5       ,6.75  ,80.224  ,0
3851  ,0.5       ,7.25  ,80.475  ,0
3852  ,0.5       ,7.5  ,80.475  ,0
3853  ,0.5       ,7.25  ,80.224  ,0
3854  ,0.5       ,0.5  ,79.972  ,0
3855  ,0.5       ,0.74998  ,80.051  ,0
3856  ,0.5       ,0.99998  ,80.13  ,0
3857  ,0.5       ,1.25  ,79.962  ,0
3858  ,0.5       ,0.74998  ,79.8  ,0
3859  ,0.5       ,1.4999  ,79.793  ,0
3860  ,0.5       ,1.2499  ,79.71  ,0
3861  ,0.5       ,1.7499  ,79.855  ,0
3862  ,0.5       ,1.9999  ,79.918  ,0
3863  ,0.5       ,1.7499  ,79.604  ,0
3864  ,0.5       ,2.25  ,79.941  ,0
3865  ,0.5       ,2.5  ,79.965  ,0
3866  ,0.5       ,2.2499  ,79.69  ,0
3867  ,0.5       ,2.75  ,79.969  ,0
3868  ,0.5       ,3  ,79.972  ,0
3869  ,0.5       ,2.75  ,79.717  ,0
3870  ,0.5       ,3.25  ,79.972  ,0
3871  ,0.5       ,3.5  ,79.972  ,0
3872  ,0.5       ,3.25  ,79.721  ,0
3873  ,0.5       ,3.75  ,79.972  ,0
3874  ,0.5       ,4  ,79.972  ,0
3875  ,0.5       ,3.75  ,79.721  ,0
3876  ,0.5       ,4.25  ,79.972  ,0
3877  ,0.5       ,4.5  ,79.972  ,0
3878  ,0.5       ,4.25  ,79.721  ,0
3879  ,0.5       ,4.75  ,79.972  ,0
3880  ,0.5       ,5  ,79.972  ,0
3881  ,0.5       ,4.75  ,79.721  ,0
3882  ,0.5       ,5.25  ,79.972  ,0
3883  ,0.5       ,5.5  ,79.972  ,0
3884  ,0.5       ,5.25  ,79.721  ,0
3885  ,0.5       ,5.75  ,79.972  ,0
3886  ,0.5       ,6  ,79.972  ,0
3887  ,0.5       ,5.75  ,79.721  ,0
3888  ,0.5       ,6.25  ,79.972  ,0
3889  ,0.5       ,6.5  ,79.972  ,0
3890  ,0.5       ,6.25  ,79.721  ,0
3891  ,0.5       ,6.75  ,79.972  ,0
3892  ,0.5       ,7  ,79.972  ,0
3893  ,0.5       ,6.75  ,79.721  ,0
3894  ,0.5       ,7.25  ,79.972  ,0
3895  ,0.5       ,7.5  ,79.972  ,0
3896  ,0.5       ,7.25  ,79.721  ,0
3897  ,0.5       ,0.5  ,79.469  ,0
3898  ,0.5       ,0.74995  ,79.548  ,0
3899  ,0.5       ,0.99993  ,79.627  ,0
3900  ,0.5       ,1.2499  ,79.459  ,0
3901  ,0.5       ,0.74995  ,79.297  ,0
3902  ,0.5       ,1.4997  ,79.29  ,0
3903  ,0.5       ,1.2497  ,79.207  ,0
3904  ,0.5       ,1.7498  ,79.352  ,0
3905  ,0.5       ,1.9998  ,79.415  ,0
3906  ,0.5       ,1.7496  ,79.101  ,0
3907  ,0.5       ,2.2499  ,79.438  ,0
3908  ,0.5       ,2.4999  ,79.462  ,0
3909  ,0.5       ,2.2497  ,79.187  ,0
3910  ,0.5       ,2.7499  ,79.466  ,0
3911  ,0.5       ,2.9999  ,79.469  ,0
3912  ,0.5       ,2.7498  ,79.214  ,0
3913  ,0.5       ,3.25  ,79.469  ,0
3914  ,0.5       ,3.5  ,79.469  ,0
3915  ,0.5       ,3.2499  ,79.218  ,0
3916  ,0.5       ,3.75  ,79.469  ,0
3917  ,0.5       ,4  ,79.469  ,0
3918  ,0.5       ,3.75  ,79.218  ,0
3919  ,0.5       ,4.25  ,79.469  ,0
3920  ,0.5       ,4.5  ,79.469  ,0
3921  ,0.5       ,4.25  ,79.218  ,0
3922  ,0.5       ,4.75  ,79.469  ,0
3923  ,0.5       ,5  ,79.469  ,0
3924  ,0.5       ,4.75  ,79.218  ,0
3925  ,0.5       ,5.25  ,79.469  ,0
3926  ,0.5       ,5.5  ,79.469  ,0
3927  ,0.5       ,5.25  ,79.218  ,0
3928  ,0.5       ,5.75  ,79.469  ,0
3929  ,0.5       ,6  ,79.469  ,0
3930  ,0.5       ,5.75  ,79.218  ,0
3931  ,0.5       ,6.25  ,79.469  ,0
3932  ,0.5       ,6.5  ,79.469  ,0
3933  ,0.5       ,6.25  ,79.218  ,0
3934  ,0.5       ,6.75  ,79.469  ,0
3935  ,0.5       ,7  ,79.469  ,0
3936  ,0.5       ,6.75  ,79.218  ,0
3937  ,0.5       ,7.25  ,79.469  ,0
3938  ,0.5       ,7.5  ,79.469  ,0
3939  ,0.5       ,7.25  ,79.218  ,0
3940  ,0.5       ,0.5  ,78.966  ,0
3941  ,0.5       ,0.74981  ,79.045  ,0
3942  ,0.5       ,0.99976  ,79.124  ,0
3943  ,0.5       ,1.2496  ,78.956  ,0
3944  ,0.5       ,0.74981  ,78.794  ,0
3945  ,0.5       ,1.499  ,78.787  ,0
3946  ,0.5       ,1.2491  ,78.705  ,0
3947  ,0.5       ,1.7491  ,78.85  ,0
3948  ,0.5       ,1.9992  ,78.912  ,0
3949  ,0.5       ,1.7486  ,78.598  ,0
3950  ,0.5       ,2.2494  ,78.936  ,0
3951  ,0.5       ,2.4994  ,78.959  ,0
3952  ,0.5       ,2.2489  ,78.684  ,0
3953  ,0.5       ,2.7497  ,78.963  ,0
3954  ,0.5       ,2.9997  ,78.966  ,0
3955  ,0.5       ,2.7493  ,78.711  ,0
3956  ,0.5       ,3.2499  ,78.966  ,0
3957  ,0.5       ,3.4999  ,78.966  ,0
3958  ,0.5       ,3.2497  ,78.715  ,0
3959  ,0.5       ,3.75  ,78.966  ,0
3960  ,0.5       ,4  ,78.966  ,0
3961  ,0.5       ,3.7499  ,78.715  ,0
3962  ,0.5       ,4.25  ,78.966  ,0
3963  ,0.5       ,4.5  ,78.966  ,0
3964  ,0.5       ,4.25  ,78.715  ,0
3965  ,0.5       ,4.75  ,78.966  ,0
3966  ,0.5       ,5  ,78.966  ,0
3967  ,0.5       ,4.75  ,78.715  ,0
3968  ,0.5       ,5.25  ,78.966  ,0
3969  ,0.5       ,5.5  ,78.966  ,0
3970  ,0.5       ,5.25  ,78.715  ,0
3971  ,0.5       ,5.75  ,78.966  ,0
3972  ,0.5       ,6  ,78.966  ,0
3973  ,0.5       ,5.75  ,78.715  ,0
3974  ,0.5       ,6.25  ,78.966  ,0
3975  ,0.5       ,6.5  ,78.966  ,0
3976  ,0.5       ,6.25  ,78.715  ,0
3977  ,0.5       ,6.75  ,78.966  ,0
3978  ,0.5       ,7  ,78.966  ,0
3979  ,0.5       ,6.75  ,78.715  ,0
3980  ,0.5       ,7.25  ,78.966  ,0
3981  ,0.5       ,7.5  ,78.966  ,0
3982  ,0.5       ,7.25  ,78.715  ,0
3983  ,0.5       ,0.5  ,78.463  ,0
3984  ,0.5       ,0.74942  ,78.543  ,0
3985  ,0.5       ,0.99923  ,78.622  ,0
3986  ,0.5       ,1.2487  ,78.453  ,0
3987  ,0.5       ,0.74942  ,78.291  ,0
3988  ,0.5       ,1.497  ,78.285  ,0
3989  ,0.5       ,1.2472  ,78.202  ,0
3990  ,0.5       ,1.7472  ,78.347  ,0
3991  ,0.5       ,1.9973  ,78.41  ,0
3992  ,0.5       ,1.7457  ,78.096  ,0
3993  ,0.5       ,2.2475  ,78.433  ,0
3994  ,0.5       ,2.4977  ,78.457  ,0
3995  ,0.5       ,2.246  ,78.182  ,0
3996  ,0.5       ,2.7484  ,78.46  ,0
3997  ,0.5       ,2.9986  ,78.463  ,0
3998  ,0.5       ,2.747  ,78.209  ,0
3999  ,0.5       ,3.2494  ,78.463  ,0
4000  ,0.5       ,3.4995  ,78.463  ,0
4001  ,0.5       ,3.2485  ,78.211  ,0
4002  ,0.5       ,3.7499  ,78.463  ,0
4003  ,0.5       ,3.9999  ,78.463  ,0
4004  ,0.5       ,3.7495  ,78.212  ,0
4005  ,0.5       ,4.25  ,78.463  ,0
4006  ,0.5       ,4.5  ,78.463  ,0
4007  ,0.5       ,4.2499  ,78.212  ,0
4008  ,0.5       ,4.75  ,78.463  ,0
4009  ,0.5       ,5  ,78.463  ,0
4010  ,0.5       ,4.75  ,78.212  ,0
4011  ,0.5       ,5.25  ,78.463  ,0
4012  ,0.5       ,5.5  ,78.463  ,0
4013  ,0.5       ,5.25  ,78.212  ,0
4014  ,0.5       ,5.75  ,78.463  ,0
4015  ,0.5       ,6  ,78.463  ,0
4016  ,0.5       ,5.75  ,78.212  ,0
4017  ,0.5       ,6.25  ,78.463  ,0
4018  ,0.5       ,6.5  ,78.463  ,0
4019  ,0.5       ,6.25  ,78.212  ,0
4020  ,0.5       ,6.75  ,78.463  ,0
4021  ,0.5       ,7  ,78.463  ,0
4022  ,0.5       ,6.75  ,78.212  ,0
4023  ,0.5       ,7.25  ,78.463  ,0
4024  ,0.5       ,7.5  ,78.463  ,0
4025  ,0.5       ,7.25  ,78.212  ,0
4026  ,0.5       ,0.5  ,77.96  ,0
4027  ,0.5       ,0.74822  ,78.04  ,0
4028  ,0.5       ,0.99764  ,78.119  ,0
4029  ,0.5       ,1.246  ,77.951  ,0
4030  ,0.5       ,0.74822  ,77.788  ,0
4031  ,0.5       ,1.4912  ,77.783  ,0
4032  ,0.5       ,1.2417  ,77.7  ,0
4033  ,0.5       ,1.7419  ,77.846  ,0
4034  ,0.5       ,1.9921  ,77.909  ,0
4035  ,0.5       ,1.7376  ,77.595  ,0
4036  ,0.5       ,2.2416  ,77.933  ,0
4037  ,0.5       ,2.4918  ,77.957  ,0
4038  ,0.5       ,2.2379  ,77.683  ,0
4039  ,0.5       ,2.7432  ,77.957  ,0
4040  ,0.5       ,2.9939  ,77.96  ,0
4041  ,0.5       ,2.7387  ,77.708  ,0
4042  ,0.5       ,3.2468  ,77.959  ,0
4043  ,0.5       ,3.4976  ,77.959  ,0
4044  ,0.5       ,3.243  ,77.708  ,0
4045  ,0.5       ,3.7492  ,77.96  ,0
4046  ,0.5       ,3.9995  ,77.96  ,0
4047  ,0.5       ,3.7476  ,77.707  ,0
4048  ,0.5       ,4.2499  ,77.96  ,0
4049  ,0.5       ,4.5  ,77.96  ,0
4050  ,0.5       ,4.2496  ,77.709  ,0
4051  ,0.5       ,4.75  ,77.96  ,0
4052  ,0.5       ,5  ,77.96  ,0
4053  ,0.5       ,4.75  ,77.709  ,0
4054  ,0.5       ,5.25  ,77.96  ,0
4055  ,0.5       ,5.5  ,77.96  ,0
4056  ,0.5       ,5.25  ,77.709  ,0
4057  ,0.5       ,5.75  ,77.96  ,0
4058  ,0.5       ,6  ,77.96  ,0
4059  ,0.5       ,5.75  ,77.709  ,0
4060  ,0.5       ,6.25  ,77.96  ,0
4061  ,0.5       ,6.5  ,77.96  ,0
4062  ,0.5       ,6.25  ,77.709  ,0
4063  ,0.5       ,6.75  ,77.96  ,0
4064  ,0.5       ,7  ,77.96  ,0
4065  ,0.5       ,6.75  ,77.709  ,0
4066  ,0.5       ,7.25  ,77.96  ,0
4067  ,0.5       ,7.5  ,77.96  ,0
4068  ,0.5       ,7.25  ,77.709  ,0
4069  ,0.5       ,0.5  ,77.457  ,0
4070  ,0.5       ,0.74475  ,77.538  ,0
4071  ,0.5       ,0.99297  ,77.618  ,0
4072  ,0.5       ,1.2382  ,77.45  ,0
4073  ,0.5       ,0.74475  ,77.287  ,0
4074  ,0.5       ,1.473  ,77.282  ,0
4075  ,0.5       ,1.2243  ,77.2  ,0
4076  ,0.5       ,1.7294  ,77.341  ,0
4077  ,0.5       ,1.9802  ,77.404  ,0
4078  ,0.5       ,1.7156  ,77.092  ,0
4079  ,0.5       ,2.2279  ,77.442  ,0
4080  ,0.5       ,2.4773  ,77.466  ,0
4081  ,0.5       ,2.2197  ,77.187  ,0
4082  ,0.5       ,2.7244  ,77.462  ,0
4083  ,0.5       ,2.9758  ,77.462  ,0
4084  ,0.5       ,2.7144  ,77.22  ,0
4085  ,0.5       ,3.2353  ,77.451  ,0
4086  ,0.5       ,3.4883  ,77.45  ,0
4087  ,0.5       ,3.2211  ,77.205  ,0
4088  ,0.5       ,3.7462  ,77.454  ,0
4089  ,0.5       ,3.9978  ,77.455  ,0
4090  ,0.5       ,3.7386  ,77.198  ,0
4091  ,0.5       ,4.2495  ,77.457  ,0
4092  ,0.5       ,4.4998  ,77.457  ,0
4093  ,0.5       ,4.2481  ,77.204  ,0
4094  ,0.5       ,4.75  ,77.457  ,0
4095  ,0.5       ,5  ,77.457  ,0
4096  ,0.5       ,4.7499  ,77.206  ,0
4097  ,0.5       ,5.25  ,77.457  ,0
4098  ,0.5       ,5.5  ,77.457  ,0
4099  ,0.5       ,5.25  ,77.206  ,0
4100  ,0.5       ,5.75  ,77.457  ,0
4101  ,0.5       ,6  ,77.457  ,0
4102  ,0.5       ,5.75  ,77.206  ,0
4103  ,0.5       ,6.25  ,77.457  ,0
4104  ,0.5       ,6.5  ,77.457  ,0
4105  ,0.5       ,6.25  ,77.206  ,0
4106  ,0.5       ,6.75  ,77.457  ,0
4107  ,0.5       ,7  ,77.457  ,0
4108  ,0.5       ,6.75  ,77.206  ,0
4109  ,0.5       ,7.25  ,77.457  ,0
4110  ,0.5       ,7.5  ,77.457  ,0
4111  ,0.5       ,7.25  ,77.206  ,0
4112  ,0.5       ,0.5  ,76.955  ,0
4113  ,0.5       ,0.73741  ,77.044  ,0
4114  ,0.5       ,0.98215  ,77.125  ,0
4115  ,0.5       ,1.217  ,76.958  ,0
4116  ,0.5       ,0.73741  ,76.792  ,0
4117  ,0.5       ,1.4179  ,76.827  ,0
4118  ,0.5       ,1.1757  ,76.751  ,0
4119  ,0.5       ,1.6849  ,76.806  ,0
4120  ,0.5       ,1.9413  ,76.865  ,0
4121  ,0.5       ,1.6436  ,76.6  ,0
4122  ,0.5       ,2.2185  ,76.941  ,0
4123  ,0.5       ,2.4662  ,76.979  ,0
4124  ,0.5       ,2.1879  ,76.656  ,0
4125  ,0.5       ,2.6715  ,77.025  ,0
4126  ,0.5       ,2.9186  ,77.021  ,0
4127  ,0.5       ,2.6704  ,76.779  ,0
4128  ,0.5       ,3.1874  ,76.927  ,0
4129  ,0.5       ,3.447  ,76.916  ,0
4130  ,0.5       ,3.1445  ,76.732  ,0
4131  ,0.5       ,3.7342  ,76.941  ,0
4132  ,0.5       ,3.9921  ,76.945  ,0
4133  ,0.5       ,3.7005  ,76.663  ,0
4134  ,0.5       ,4.2478  ,76.952  ,0
4135  ,0.5       ,4.4994  ,76.954  ,0
4136  ,0.5       ,4.2434  ,76.694  ,0
4137  ,0.5       ,4.7499  ,76.954  ,0
4138  ,0.5       ,5  ,76.955  ,0
4139  ,0.5       ,4.7495  ,76.702  ,0
4140  ,0.5       ,5.25  ,76.955  ,0
4141  ,0.5       ,5.5  ,76.955  ,0
4142  ,0.5       ,5.25  ,76.703  ,0
4143  ,0.5       ,5.75  ,76.955  ,0
4144  ,0.5       ,6  ,76.955  ,0
4145  ,0.5       ,5.75  ,76.703  ,0
4146  ,0.5       ,6.25  ,76.955  ,0
4147  ,0.5       ,6.5  ,76.955  ,0
4148  ,0.5       ,6.25  ,76.703  ,0
4149  ,0.5       ,6.75  ,76.955  ,0
4150  ,0.5       ,7  ,76.955  ,0
4151  ,0.5       ,6.75  ,76.703  ,0
4152  ,0.5       ,7.25  ,76.955  ,0
4153  ,0.5       ,7.5  ,76.955  ,0
4154  ,0.5       ,7.25  ,76.703  ,0
4155  ,0.5       ,0.5  ,76.452  ,0
4156  ,0.5       ,0.74163  ,76.552  ,0
4157  ,0.5       ,0.97903  ,76.642  ,0
4158  ,0.5       ,1.1799  ,76.511  ,0
4159  ,0.5       ,0.74163  ,76.301  ,0
4160  ,0.5       ,1.4322  ,76.403  ,0
4161  ,0.5       ,1.6992  ,76.382  ,0
4162  ,0.5       ,1.2355  ,76.294  ,0
4163  ,0.5       ,1.9626  ,76.284  ,0
4164  ,0.5       ,1.7512  ,76.087  ,0
4165  ,0.5       ,2.2045  ,76.39  ,0
4166  ,0.5       ,2.4818  ,76.466  ,0
4167  ,0.5       ,2.2565  ,76.094  ,0
4168  ,0.5       ,2.7256  ,76.545  ,0
4169  ,0.5       ,2.9309  ,76.591  ,0
4170  ,0.5       ,3.1997  ,76.497  ,0
4171  ,0.5       ,2.7423  ,76.278  ,0
4172  ,0.5       ,3.4647  ,76.333  ,0
4173  ,0.5       ,3.251  ,76.192  ,0
4174  ,0.5       ,3.7036  ,76.4  ,0
4175  ,0.5       ,3.9907  ,76.425  ,0
4176  ,0.5       ,3.7549  ,76.095  ,0
4177  ,0.5       ,4.2434  ,76.442  ,0
4178  ,0.5       ,4.4991  ,76.449  ,0
4179  ,0.5       ,4.2464  ,76.179  ,0
4180  ,0.5       ,4.7495  ,76.451  ,0
4181  ,0.5       ,5  ,76.452  ,0
4182  ,0.5       ,4.7495  ,76.198  ,0
4183  ,0.5       ,5.25  ,76.452  ,0
4184  ,0.5       ,5.5  ,76.452  ,0
4185  ,0.5       ,5.25  ,76.2  ,0
4186  ,0.5       ,5.75  ,76.452  ,0
4187  ,0.5       ,6  ,76.452  ,0
4188  ,0.5       ,5.75  ,76.2  ,0
4189  ,0.5       ,6.25  ,76.452  ,0
4190  ,0.5       ,6.5  ,76.452  ,0
4191  ,0.5       ,6.25  ,76.2  ,0
4192  ,0.5       ,6.75  ,76.452  ,0
4193  ,0.5       ,7  ,76.452  ,0
4194  ,0.5       ,6.75  ,76.2  ,0
4195  ,0.5       ,7.25  ,76.452  ,0
4196  ,0.5       ,7.5  ,76.452  ,0
4197  ,0.5       ,7.25  ,76.2  ,0
4198  ,0.6       ,0.5  ,75.949  ,0
4199  ,0.5       ,0.75348  ,76.049  ,0
4200  ,0.5       ,0.9951  ,76.149  ,0
4201  ,0.5       ,1.2474  ,76.042  ,0
4202  ,0.6       ,0.75348  ,75.797  ,0
4203  ,0.5       ,1.524  ,75.896  ,0
4204  ,0.5       ,1.7874  ,75.797  ,0
4205  ,0.6       ,1.2836  ,75.752  ,0
4206  ,0.5       ,2.0546  ,75.764  ,0
4207  ,0.6       ,1.8274  ,75.573  ,0
4208  ,0.5       ,2.2603  ,75.839  ,0
4209  ,0.5       ,2.5022  ,75.945  ,0
4210  ,0.5       ,2.3003  ,75.615  ,0
4211  ,0.5       ,2.7803  ,75.979  ,0
4212  ,0.5       ,3.0242  ,76.057  ,0
4213  ,0.5       ,3.2891  ,75.892  ,0
4214  ,0.5       ,2.7841  ,75.724  ,0
4215  ,0.5       ,3.5579  ,75.793  ,0
4216  ,0.5       ,3.331  ,75.658  ,0
4217  ,0.5       ,3.7652  ,75.84  ,0
4218  ,0.5       ,4.0042  ,75.907  ,0
4219  ,0.5       ,3.8071  ,75.606  ,0
4220  ,0.5       ,4.2472  ,75.927  ,0
4221  ,0.5       ,4.4999  ,75.944  ,0
4222  ,0.5       ,4.2576  ,75.672  ,0
4223  ,0.5       ,4.7495  ,75.947  ,0
4224  ,0.5       ,5  ,75.949  ,0
4225  ,0.5       ,4.7503  ,75.694  ,0
4226  ,0.5       ,5.25  ,75.949  ,0
4227  ,0.5       ,5.5  ,75.949  ,0
4228  ,0.5       ,5.25  ,75.697  ,0
4229  ,0.5       ,5.75  ,75.949  ,0
4230  ,0.5       ,6  ,75.949  ,0
4231  ,0.5       ,5.75  ,75.697  ,0
4232  ,0.5       ,6.25  ,75.949  ,0
4233  ,0.5       ,6.5  ,75.949  ,0
4234  ,0.5       ,6.25  ,75.697  ,0
4235  ,0.5       ,6.75  ,75.949  ,0
4236  ,0.5       ,7  ,75.949  ,0
4237  ,0.5       ,6.75  ,75.697  ,0
4238  ,0.5       ,7.25  ,75.949  ,0
4239  ,0.5       ,7.5  ,75.949  ,0
4240  ,0.5       ,7.25  ,75.697  ,0
4241  ,0.6       ,0.5  ,75.446  ,0
4242  ,0.6       ,0.74538  ,75.543  ,0
4243  ,0.6       ,0.99885  ,75.643  ,0
4244  ,0.6       ,1.2755  ,75.498  ,0
4245  ,0.6       ,0.74538  ,75.291  ,0
4246  ,0.6       ,1.4781  ,75.366  ,0
4247  ,0.6       ,1.1933  ,75.257  ,0
4248  ,0.6       ,1.7481  ,75.337  ,0
4249  ,0.6       ,2.0152  ,75.304  ,0
4250  ,0.6       ,1.6659  ,75.096  ,0
4251  ,0.6       ,2.2905  ,75.375  ,0
4252  ,0.5       ,2.4962  ,75.45  ,0
4253  ,0.6       ,2.2112  ,75.139  ,0
4254  ,0.5       ,2.7021  ,75.506  ,0
4255  ,0.5       ,2.9803  ,75.54  ,0
4256  ,0.6       ,2.6924  ,75.266  ,0
4257  ,0.5       ,3.2501  ,75.439  ,0
4258  ,0.5       ,3.5189  ,75.34  ,0
4259  ,0.5       ,3.1682  ,75.222  ,0
4260  ,0.5       ,3.8019  ,75.36  ,0
4261  ,0.5       ,4.0093  ,75.407  ,0
4262  ,0.5       ,3.7211  ,75.141  ,0
4263  ,0.5       ,4.2578  ,75.421  ,0
4264  ,0.5       ,4.5008  ,75.441  ,0
4265  ,0.5       ,4.2526  ,75.175  ,0
4266  ,0.5       ,4.7503  ,75.443  ,0
4267  ,0.5       ,5  ,75.446  ,0
4268  ,0.5       ,4.7505  ,75.192  ,0
4269  ,0.5       ,5.25  ,75.446  ,0
4270  ,0.5       ,5.5  ,75.446  ,0
4271  ,0.5       ,5.25  ,75.194  ,0
4272  ,0.5       ,5.75  ,75.446  ,0
4273  ,0.5       ,6  ,75.446  ,0
4274  ,0.5       ,5.75  ,75.194  ,0
4275  ,0.5       ,6.25  ,75.446  ,0
4276  ,0.5       ,6.5  ,75.446  ,0
4277  ,0.5       ,6.25  ,75.194  ,0
4278  ,0.5       ,6.75  ,75.446  ,0
4279  ,0.5       ,7  ,75.446  ,0
4280  ,0.5       ,6.75  ,75.194  ,0
4281  ,0.5       ,7.25  ,75.446  ,0
4282  ,0.5       ,7.5  ,75.446  ,0
4283  ,0.5       ,7.25  ,75.194  ,0
4284  ,0.6       ,0.5  ,74.943  ,0
4285  ,0.6       ,0.74267  ,75.044  ,0
4286  ,0.6       ,0.98805  ,75.141  ,0
4287  ,0.6       ,1.1906  ,75.01  ,0
4288  ,0.6       ,0.74267  ,74.793  ,0
4289  ,0.6       ,1.4429  ,74.901  ,0
4290  ,0.6       ,1.713  ,74.873  ,0
4291  ,0.6       ,1.2377  ,74.786  ,0
4292  ,0.6       ,1.9757  ,74.774  ,0
4293  ,0.6       ,1.7527  ,74.579  ,0
4294  ,0.6       ,2.2183  ,74.879  ,0
4295  ,0.6       ,2.4936  ,74.95  ,0
4296  ,0.6       ,2.2581  ,74.585  ,0
4297  ,0.6       ,2.738  ,75.029  ,0
4298  ,0.6       ,2.9439  ,75.085  ,0
4299  ,0.6       ,3.2138  ,74.985  ,0
4300  ,0.6       ,2.7451  ,74.769  ,0
4301  ,0.6       ,3.4776  ,74.82  ,0
4302  ,0.6       ,3.2533  ,74.683  ,0
4303  ,0.5       ,3.717  ,74.887  ,0
4304  ,0.5       ,4  ,74.906  ,0
4305  ,0.6       ,3.7565  ,74.585  ,0
4306  ,0.5       ,4.252  ,74.924  ,0
4307  ,0.5       ,4.5004  ,74.938  ,0
4308  ,0.5       ,4.2478  ,74.669  ,0
4309  ,0.5       ,4.7505  ,74.94  ,0
4310  ,0.5       ,4.9999  ,74.943  ,0
4311  ,0.5       ,4.7499  ,74.689  ,0
4312  ,0.5       ,5.25  ,74.943  ,0
4313  ,0.5       ,5.5  ,74.943  ,0
4314  ,0.5       ,5.2499  ,74.691  ,0
4315  ,0.5       ,5.75  ,74.943  ,0
4316  ,0.5       ,6  ,74.943  ,0
4317  ,0.5       ,5.75  ,74.691  ,0
4318  ,0.5       ,6.25  ,74.943  ,0
4319  ,0.5       ,6.5  ,74.943  ,0
4320  ,0.5       ,6.25  ,74.691  ,0
4321  ,0.5       ,6.75  ,74.943  ,0
4322  ,0.5       ,7  ,74.943  ,0
4323  ,0.5       ,6.75  ,74.691  ,0
4324  ,0.5       ,7.25  ,74.943  ,0
4325  ,0.5       ,7.5  ,74.943  ,0
4326  ,0.5       ,7.25  ,74.691  ,0
4327  ,0.6       ,0.5  ,74.44  ,0
4328  ,0.6       ,0.75329  ,74.54  ,0
4329  ,0.6       ,0.99596  ,74.642  ,0
4330  ,0.6       ,1.2483  ,74.533  ,0
4331  ,0.6       ,0.75329  ,74.289  ,0
4332  ,0.6       ,1.5244  ,74.389  ,0
4333  ,0.6       ,1.7871  ,74.29  ,0
4334  ,0.6       ,1.2826  ,74.244  ,0
4335  ,0.6       ,2.054  ,74.256  ,0
4336  ,0.6       ,1.8256  ,74.066  ,0
4337  ,0.6       ,2.26  ,74.331  ,0
4338  ,0.6       ,2.5026  ,74.437  ,0
4339  ,0.6       ,2.2985  ,74.108  ,0
4340  ,0.6       ,2.7808  ,74.47  ,0
4341  ,0.6       ,3.0251  ,74.549  ,0
4342  ,0.6       ,3.2889  ,74.384  ,0
4343  ,0.6       ,2.7826  ,74.216  ,0
4344  ,0.6       ,3.5577  ,74.285  ,0
4345  ,0.6       ,3.3295  ,74.15  ,0
4346  ,0.6       ,3.7655  ,74.331  ,0
4347  ,0.6       ,4.0049  ,74.398  ,0
4348  ,0.6       ,3.8061  ,74.097  ,0
4349  ,0.5       ,4.2481  ,74.417  ,0
4350  ,0.5       ,4.5  ,74.435  ,0
4351  ,0.6       ,4.2571  ,74.163  ,0
4352  ,0.5       ,4.7497  ,74.437  ,0
4353  ,0.5       ,4.9998  ,74.44  ,0
4354  ,0.5       ,4.75  ,74.185  ,0
4355  ,0.5       ,5.2498  ,74.44  ,0
4356  ,0.5       ,5.4999  ,74.44  ,0
4357  ,0.5       ,5.2497  ,74.188  ,0
4358  ,0.5       ,5.7499  ,74.44  ,0
4359  ,0.5       ,5.9999  ,74.44  ,0
4360  ,0.5       ,5.7498  ,74.188  ,0
4361  ,0.5       ,6.25  ,74.44  ,0
4362  ,0.5       ,6.5  ,74.44  ,0
4363  ,0.5       ,6.2499  ,74.188  ,0
4364  ,0.5       ,6.75  ,74.44  ,0
4365  ,0.5       ,7  ,74.44  ,0
4366  ,0.5       ,6.75  ,74.188  ,0
4367  ,0.5       ,7.25  ,74.44  ,0
4368  ,0.5       ,7.5  ,74.44  ,0
4369  ,0.5       ,7.25  ,74.188  ,0
4370  ,0.6       ,0.5  ,73.937  ,0
4371  ,0.6       ,0.74488  ,74.035  ,0
4372  ,0.6       ,0.99817  ,74.135  ,0
4373  ,0.6       ,1.2742  ,73.99  ,0
4374  ,0.6       ,0.74488  ,73.783  ,0
4375  ,0.6       ,1.4755  ,73.86  ,0
4376  ,0.6       ,1.1911  ,73.751  ,0
4377  ,0.6       ,1.7445  ,73.832  ,0
4378  ,0.6       ,2.0114  ,73.798  ,0
4379  ,0.6       ,1.6613  ,73.592  ,0
4380  ,0.6       ,2.2873  ,73.87  ,0
4381  ,0.6       ,2.4933  ,73.945  ,0
4382  ,0.6       ,2.2062  ,73.636  ,0
4383  ,0.6       ,2.6995  ,74  ,0
4384  ,0.6       ,2.9776  ,74.033  ,0
4385  ,0.6       ,2.6883  ,73.762  ,0
4386  ,0.6       ,3.2464  ,73.933  ,0
4387  ,0.6       ,3.5152  ,73.833  ,0
4388  ,0.6       ,3.1633  ,73.717  ,0
4389  ,0.6       ,3.8001  ,73.851  ,0
4390  ,0.6       ,4.0079  ,73.898  ,0
4391  ,0.6       ,3.717  ,73.634  ,0
4392  ,0.6       ,4.2568  ,73.912  ,0
4393  ,0.6       ,4.5  ,73.932  ,0
4394  ,0.6       ,4.2508  ,73.666  ,0
4395  ,0.5       ,4.7496  ,73.934  ,0
4396  ,0.5       ,4.9993  ,73.937  ,0
4397  ,0.6       ,4.7493  ,73.683  ,0
4398  ,0.5       ,5.2494  ,73.937  ,0
4399  ,0.5       ,5.4994  ,73.937  ,0
4400  ,0.5       ,5.249  ,73.685  ,0
4401  ,0.5       ,5.7496  ,73.937  ,0
4402  ,0.5       ,5.9996  ,73.937  ,0
4403  ,0.5       ,5.7492  ,73.685  ,0
4404  ,0.5       ,6.2498  ,73.937  ,0
4405  ,0.5       ,6.4998  ,73.937  ,0
4406  ,0.5       ,6.2496  ,73.685  ,0
4407  ,0.5       ,6.7499  ,73.937  ,0
4408  ,0.5       ,7  ,73.937  ,0
4409  ,0.5       ,6.7498  ,73.685  ,0
4410  ,0.5       ,7.25  ,73.937  ,0
4411  ,0.5       ,7.5  ,73.937  ,0
4412  ,0.5       ,7.25  ,73.685  ,0
4413  ,0.6       ,0.5  ,73.434  ,0
4414  ,0.6       ,0.74134  ,73.537  ,0
4415  ,0.6       ,0.98622  ,73.635  ,0
4416  ,0.6       ,1.1875  ,73.505  ,0
4417  ,0.6       ,0.74134  ,73.286  ,0
4418  ,0.6       ,1.4357  ,73.401  ,0
4419  ,0.6       ,1.7047  ,73.373  ,0
4420  ,0.6       ,1.2309  ,73.286  ,0
4421  ,0.6       ,1.9643  ,73.268  ,0
4422  ,0.6       ,1.7387  ,73.077  ,0
4423  ,0.6       ,2.2107  ,73.38  ,0
4424  ,0.6       ,2.4866  ,73.452  ,0
4425  ,0.6       ,2.2447  ,73.084  ,0
4426  ,0.6       ,2.7295  ,73.531  ,0
4427  ,0.6       ,2.9357  ,73.587  ,0
4428  ,0.6       ,3.2045  ,73.486  ,0
4429  ,0.6       ,2.734  ,73.276  ,0
4430  ,0.6       ,3.4627  ,73.316  ,0
4431  ,0.6       ,3.2351  ,73.186  ,0
4432  ,0.6       ,3.7103  ,73.379  ,0
4433  ,0.6       ,3.9952  ,73.398  ,0
4434  ,0.6       ,3.7409  ,73.079  ,0
4435  ,0.6       ,4.2489  ,73.415  ,0
4436  ,0.6       ,4.4978  ,73.429  ,0
4437  ,0.6       ,4.2422  ,73.16  ,0
4438  ,0.6       ,4.7481  ,73.431  ,0
4439  ,0.6       ,4.9976  ,73.434  ,0
4440  ,0.6       ,4.7461  ,73.18  ,0
4441  ,0.5       ,5.2478  ,73.434  ,0
4442  ,0.5       ,5.4979  ,73.434  ,0
4443  ,0.5       ,5.2465  ,73.182  ,0
4444  ,0.5       ,5.7483  ,73.434  ,0
4445  ,0.5       ,5.9984  ,73.434  ,0
4446  ,0.5       ,5.7471  ,73.182  ,0
4447  ,0.5       ,6.249  ,73.434  ,0
4448  ,0.5       ,6.4992  ,73.434  ,0
4449  ,0.5       ,6.2481  ,73.182  ,0
4450  ,0.5       ,6.7497  ,73.434  ,0
4451  ,0.5       ,6.9998  ,73.434  ,0
4452  ,0.5       ,6.7491  ,73.182  ,0
4453  ,0.5       ,7.25  ,73.434  ,0
4454  ,0.5       ,7.5  ,73.434  ,0
4455  ,0.5       ,7.2498  ,73.182  ,0
4456  ,0.6       ,0.5  ,72.931  ,0
4457  ,0.6       ,0.75089  ,73.037  ,0
4458  ,0.6       ,0.99223  ,73.141  ,0
4459  ,0.6       ,1.2405  ,73.037  ,0
4460  ,0.6       ,0.75089  ,72.786  ,0
4461  ,0.6       ,1.4978  ,72.921  ,0
4462  ,0.6       ,1.7574  ,72.816  ,0
4463  ,0.6       ,1.2591  ,72.776  ,0
4464  ,0.6       ,2.0147  ,72.71  ,0
4465  ,0.6       ,1.7738  ,72.554  ,0
4466  ,0.6       ,2.258  ,72.816  ,0
4467  ,0.6       ,2.5044  ,72.928  ,0
4468  ,0.6       ,2.2744  ,72.554  ,0
4469  ,0.6       ,2.7527  ,73.011  ,0
4470  ,0.6       ,2.9956  ,73.091  ,0
4471  ,0.6       ,3.2538  ,72.921  ,0
4472  ,0.6       ,2.766  ,72.742  ,0
4473  ,0.6       ,3.5086  ,72.755  ,0
4474  ,0.6       ,3.2691  ,72.659  ,0
4475  ,0.6       ,3.744  ,72.822  ,0
4476  ,0.6       ,3.9916  ,72.885  ,0
4477  ,0.6       ,3.7593  ,72.56  ,0
4478  ,0.6       ,4.2388  ,72.908  ,0
4479  ,0.6       ,4.4925  ,72.925  ,0
4480  ,0.6       ,4.2419  ,72.65  ,0
4481  ,0.6       ,4.7425  ,72.928  ,0
4482  ,0.6       ,4.9928  ,72.931  ,0
4483  ,0.6       ,4.7391  ,72.676  ,0
4484  ,0.6       ,5.2429  ,72.931  ,0
4485  ,0.5       ,5.4931  ,72.931  ,0
4486  ,0.6       ,5.2393  ,72.679  ,0
4487  ,0.5       ,5.7437  ,72.931  ,0
4488  ,0.5       ,5.9941  ,72.931  ,0
4489  ,0.5       ,5.7401  ,72.679  ,0
4490  ,0.5       ,6.2457  ,72.931  ,0
4491  ,0.5       ,6.4963  ,72.931  ,0
4492  ,0.5       ,6.2423  ,72.679  ,0
4493  ,0.5       ,6.7483  ,72.931  ,0
4494  ,0.5       ,6.9988  ,72.931  ,0
4495  ,0.5       ,6.7459  ,72.679  ,0
4496  ,0.5       ,7.2498  ,72.931  ,0
4497  ,0.4       ,7.5  ,72.931  ,0
4498  ,0.5       ,7.249  ,72.679  ,0
4499  ,0.6       ,0.5  ,72.428  ,0
4500  ,0.6       ,0.75569  ,72.525  ,0
4501  ,0.6       ,1.0066  ,72.631  ,0
4502  ,0.6       ,1.2639  ,72.515  ,0
4503  ,0.6       ,0.75569  ,72.273  ,0
4504  ,0.6       ,1.5439  ,72.368  ,0
4505  ,0.6       ,1.8013  ,72.261  ,0
4506  ,0.6       ,1.2914  ,72.223  ,0
4507  ,0.6       ,2.0628  ,72.233  ,0
4508  ,0.6       ,1.833  ,72.046  ,0
4509  ,0.6       ,2.2713  ,72.295  ,0
4510  ,0.6       ,2.5145  ,72.401  ,0
4511  ,0.6       ,2.3029  ,72.08  ,0
4512  ,0.6       ,2.7953  ,72.443  ,0
4513  ,0.6       ,3.0437  ,72.526  ,0
4514  ,0.6       ,3.2985  ,72.36  ,0
4515  ,0.6       ,2.7922  ,72.184  ,0
4516  ,0.6       ,3.5567  ,72.272  ,0
4517  ,0.6       ,3.3313  ,72.139  ,0
4518  ,0.6       ,3.757  ,72.314  ,0
4519  ,0.6       ,3.9924  ,72.38  ,0
4520  ,0.6       ,3.7898  ,72.092  ,0
4521  ,0.6       ,4.2333  ,72.399  ,0
4522  ,0.6       ,4.4805  ,72.422  ,0
4523  ,0.6       ,4.2309  ,72.152  ,0
4524  ,0.6       ,4.7296  ,72.425  ,0
4525  ,0.6       ,4.9796  ,72.428  ,0
4526  ,0.6       ,4.7209  ,72.173  ,0
4527  ,0.6       ,5.2295  ,72.428  ,0
4528  ,0.6       ,5.4797  ,72.428  ,0
4529  ,0.6       ,5.22  ,72.176  ,0
4530  ,0.5       ,5.7302  ,72.428  ,0
4531  ,0.5       ,5.9808  ,72.428  ,0
4532  ,0.6       ,5.7205  ,72.176  ,0
4533  ,0.5       ,6.2332  ,72.428  ,0
4534  ,0.5       ,6.4848  ,72.428  ,0
4535  ,0.5       ,6.2233  ,72.176  ,0
4536  ,0.5       ,6.7414  ,72.428  ,0
4537  ,0.5       ,6.9934  ,72.428  ,0
4538  ,0.5       ,6.7323  ,72.176  ,0
4539  ,0.5       ,7.249  ,72.428  ,0
4540  ,0.4       ,7.5  ,72.428  ,0
4541  ,0.5       ,7.2444  ,72.176  ,0
4542  ,0.6       ,0.5  ,71.925  ,0
4543  ,0.6       ,0.74471  ,72.003  ,0
4544  ,0.6       ,1.0004  ,72.1  ,0
4545  ,0.6       ,1.2804  ,71.953  ,0
4546  ,0.6       ,0.74471  ,71.752  ,0
4547  ,0.6       ,1.5072  ,71.787  ,0
4548  ,0.6       ,1.2162  ,71.665  ,0
4549  ,0.6       ,1.7623  ,71.845  ,0
4550  ,0.6       ,2.0238  ,71.816  ,0
4551  ,0.6       ,1.6981  ,71.556  ,0
4552  ,0.6       ,2.2708  ,71.835  ,0
4553  ,0.6       ,2.4792  ,71.897  ,0
4554  ,0.6       ,2.2001  ,71.633  ,0
4555  ,0.6       ,2.7284  ,71.91  ,0
4556  ,0.6       ,3.0092  ,71.952  ,0
4557  ,0.6       ,2.6962  ,71.665  ,0
4558  ,0.6       ,3.2635  ,71.946  ,0
4559  ,0.6       ,3.5217  ,71.858  ,0
4560  ,0.6       ,3.1997  ,71.671  ,0
4561  ,0.6       ,3.7656  ,71.854  ,0
4562  ,0.6       ,3.9658  ,71.895  ,0
4563  ,0.6       ,3.6978  ,71.66  ,0
4564  ,0.6       ,4.2082  ,71.902  ,0
4565  ,0.6       ,4.4491  ,71.92  ,0
4566  ,0.6       ,4.184  ,71.663  ,0
4567  ,0.6       ,4.6978  ,71.922  ,0
4568  ,0.6       ,4.9469  ,71.925  ,0
4569  ,0.6       ,4.6751  ,71.672  ,0
4570  ,0.6       ,5.1966  ,71.925  ,0
4571  ,0.6       ,5.4466  ,71.925  ,0
4572  ,0.6       ,5.1736  ,71.673  ,0
4573  ,0.6       ,5.6966  ,71.925  ,0
4574  ,0.6       ,5.9471  ,71.925  ,0
4575  ,0.6       ,5.6733  ,71.673  ,0
4576  ,0.5       ,6.1986  ,71.925  ,0
4577  ,0.5       ,6.451  ,71.925  ,0
4578  ,0.5       ,6.1748  ,71.673  ,0
4579  ,0.5       ,6.7089  ,71.925  ,0
4580  ,0.5       ,6.9655  ,71.925  ,0
4581  ,0.5       ,6.6842  ,71.673  ,0
4582  ,0.5       ,7.2444  ,71.925  ,0
4583  ,0.4       ,7.5  ,71.925  ,0
4584  ,0.5       ,7.2211  ,71.673  ,0
4585  ,0.6       ,0.49566  ,71.422  ,0
4586  ,0.6       ,0.71021  ,71.455  ,0
4587  ,0.6       ,0.95491  ,71.534  ,0
4588  ,0.6       ,1.1817  ,71.368  ,0
4589  ,0.6       ,0.70586  ,71.204  ,0
4590  ,0.6       ,1.4111  ,71.277  ,0
4591  ,0.6       ,1.1498  ,71.146  ,0
4592  ,0.6       ,1.6318  ,71.308  ,0
4593  ,0.6       ,1.8869  ,71.365  ,0
4594  ,0.6       ,1.5999  ,71.086  ,0
4595  ,0.6       ,2.1413  ,71.387  ,0
4596  ,0.6       ,2.3883  ,71.406  ,0
4597  ,0.6       ,2.0751  ,71.138  ,0
4598  ,0.6       ,2.6396  ,71.411  ,0
4599  ,0.6       ,2.8888  ,71.424  ,0
4600  ,0.6       ,2.5808  ,71.165  ,0
4601  ,0.6       ,3.139  ,71.424  ,0
4602  ,0.6       ,3.3932  ,71.418  ,0
4603  ,0.6       ,3.0824  ,71.17  ,0
4604  ,0.6       ,3.6428  ,71.417  ,0
4605  ,0.6       ,3.8866  ,71.413  ,0
4606  ,0.6       ,3.5821  ,71.17  ,0
4607  ,0.6       ,4.1355  ,71.413  ,0
4608  ,0.6       ,4.3779  ,71.42  ,0
4609  ,0.6       ,4.0805  ,71.169  ,0
4610  ,0.6       ,4.6272  ,71.42  ,0
4611  ,0.6       ,4.8759  ,71.422  ,0
4612  ,0.6       ,4.5787  ,71.17  ,0
4613  ,0.6       ,5.1256  ,71.422  ,0
4614  ,0.6       ,5.3753  ,71.422  ,0
4615  ,0.6       ,5.0777  ,71.17  ,0
4616  ,0.6       ,5.625  ,71.422  ,0
4617  ,0.6       ,5.875  ,71.422  ,0
4618  ,0.6       ,5.5771  ,71.17  ,0
4619  ,0.5       ,6.125  ,71.422  ,0
4620  ,0.5       ,6.3765  ,71.422  ,0
4621  ,0.6       ,6.0767  ,71.17  ,0
4622  ,0.5       ,6.6288  ,71.422  ,0
4623  ,0.5       ,6.8868  ,71.422  ,0
4624  ,0.5       ,6.5791  ,71.17  ,0
4625  ,0.5       ,7.156  ,71.422  ,0
4626  ,0.4       ,7.4349  ,71.422  ,0
4627  ,0.5       ,7.1006  ,71.17  ,0
4628  ,0.6       ,0.50166  ,70.919  ,0
4629  ,0.6       ,0.7162  ,70.952  ,0
4630  ,0.6       ,1.0021  ,71.005  ,0
4631  ,0.6       ,1.2315  ,70.914  ,0
4632  ,0.6       ,0.7979  ,70.72  ,0
4633  ,0.6       ,1.4709  ,70.821  ,0
4634  ,0.6       ,1.6916  ,70.852  ,0
4635  ,0.6       ,1.3232  ,70.679  ,0
4636  ,0.6       ,1.9861  ,70.882  ,0
4637  ,0.6       ,2.2406  ,70.904  ,0
4638  ,0.6       ,1.8571  ,70.617  ,0
4639  ,0.6       ,2.4991  ,70.913  ,0
4640  ,0.6       ,2.7504  ,70.918  ,0
4641  ,0.6       ,2.4101  ,70.657  ,0
4642  ,0.6       ,3.0017  ,70.919  ,0
4643  ,0.6       ,3.2519  ,70.919  ,0
4644  ,0.6       ,2.9199  ,70.667  ,0
4645  ,0.6       ,3.5025  ,70.919  ,0
4646  ,0.6       ,3.752  ,70.918  ,0
4647  ,0.6       ,3.4218  ,70.667  ,0
4648  ,0.6       ,4.0026  ,70.918  ,0
4649  ,0.6       ,4.2514  ,70.918  ,0
4650  ,0.6       ,3.9229  ,70.667  ,0
4651  ,0.6       ,4.502  ,70.918  ,0
4652  ,0.6       ,4.7513  ,70.919  ,0
4653  ,0.6       ,4.424  ,70.667  ,0
4654  ,0.6       ,5.0018  ,70.919  ,0
4655  ,0.6       ,5.2515  ,70.919  ,0
4656  ,0.6       ,4.9251  ,70.667  ,0
4657  ,0.6       ,5.5019  ,70.919  ,0
4658  ,0.6       ,5.7516  ,70.919  ,0
4659  ,0.6       ,5.426  ,70.667  ,0
4660  ,0.6       ,6.0019  ,70.919  ,0
4661  ,0.5       ,6.2519  ,70.919  ,0
4662  ,0.6       ,5.9268  ,70.667  ,0
4663  ,0.5       ,6.5014  ,70.919  ,0
4664  ,0.5       ,6.7537  ,70.919  ,0
4665  ,0.5       ,6.4266  ,70.667  ,0
4666  ,0.5       ,6.9997  ,70.919  ,0
4667  ,0.5       ,7.2689  ,70.919  ,0
4668  ,0.5       ,6.922  ,70.667  ,0
4669  ,0.6       ,0.5063  ,70.416  ,0
4670  ,0.6       ,0.75951  ,70.491  ,0
4671  ,0.6       ,1.0454  ,70.543  ,0
4672  ,0.6       ,1.2848  ,70.451  ,0
4673  ,0.6       ,0.75381  ,70.24  ,0
4674  ,0.6       ,1.5078  ,70.29  ,0
4675  ,0.6       ,1.23  ,70.154  ,0
4676  ,0.6       ,1.7699  ,70.355  ,0
4677  ,0.6       ,2.0644  ,70.386  ,0
4678  ,0.6       ,1.7151  ,70.059  ,0
4679  ,0.6       ,2.324  ,70.404  ,0
4680  ,0.6       ,2.5825  ,70.413  ,0
4681  ,0.6       ,2.2368  ,70.142  ,0
4682  ,0.6       ,2.8348  ,70.415  ,0
4683  ,0.6       ,3.0861  ,70.416  ,0
4684  ,0.6       ,2.7487  ,70.162  ,0
4685  ,0.6       ,3.3371  ,70.416  ,0
4686  ,0.6       ,3.5876  ,70.416  ,0
4687  ,0.6       ,3.2519  ,70.164  ,0
4688  ,0.6       ,3.8386  ,70.416  ,0
4689  ,0.6       ,4.0891  ,70.416  ,0
4690  ,0.6       ,3.7538  ,70.164  ,0
4691  ,0.6       ,4.34  ,70.416  ,0
4692  ,0.6       ,4.5905  ,70.416  ,0
4693  ,0.6       ,4.2556  ,70.164  ,0
4694  ,0.6       ,4.8414  ,70.416  ,0
4695  ,0.6       ,5.0919  ,70.416  ,0
4696  ,0.6       ,4.7574  ,70.164  ,0
4697  ,0.6       ,5.3427  ,70.416  ,0
4698  ,0.6       ,5.5931  ,70.416  ,0
4699  ,0.6       ,5.259  ,70.164  ,0
4700  ,0.6       ,5.8437  ,70.416  ,0
4701  ,0.6       ,6.094  ,70.416  ,0
4702  ,0.6       ,5.7604  ,70.164  ,0
4703  ,0.6       ,6.3446  ,70.416  ,0
4704  ,0.5       ,6.5941  ,70.416  ,0
4705  ,0.6       ,6.2615  ,70.164  ,0
4706  ,0.5       ,6.8422  ,70.416  ,0
4707  ,0.5       ,7.0882  ,70.416  ,0
4708  ,0.5       ,6.7602  ,70.164  ,0
4709  ,0.6       ,0.49522  ,69.913  ,0
4710  ,0.6       ,0.71263  ,69.946  ,0
4711  ,0.6       ,0.96584  ,70.021  ,0
4712  ,0.6       ,1.1888  ,69.861  ,0
4713  ,0.6       ,0.70726  ,69.695  ,0
4714  ,0.6       ,1.4191  ,69.77  ,0
4715  ,0.6       ,1.155  ,69.637  ,0
4716  ,0.6       ,1.6416  ,69.801  ,0
4717  ,0.6       ,1.9037  ,69.867  ,0
4718  ,0.6       ,1.6078  ,69.578  ,0
4719  ,0.6       ,2.1603  ,69.889  ,0
4720  ,0.6       ,2.4199  ,69.906  ,0
4721  ,0.6       ,2.0868  ,69.631  ,0
4722  ,0.6       ,2.6727  ,69.91  ,0
4723  ,0.6       ,2.925  ,69.913  ,0
4724  ,0.6       ,2.5962  ,69.657  ,0
4725  ,0.6       ,3.1757  ,69.913  ,0
4726  ,0.6       ,3.4266  ,69.913  ,0
4727  ,0.6       ,3.0997  ,69.661  ,0
4728  ,0.6       ,3.6771  ,69.913  ,0
4729  ,0.6       ,3.928  ,69.913  ,0
4730  ,0.6       ,3.6009  ,69.661  ,0
4731  ,0.6       ,4.1785  ,69.913  ,0
4732  ,0.6       ,4.4294  ,69.913  ,0
4733  ,0.6       ,4.1019  ,69.661  ,0
4734  ,0.6       ,4.6799  ,69.913  ,0
4735  ,0.6       ,4.9308  ,69.913  ,0
4736  ,0.6       ,4.6028  ,69.661  ,0
4737  ,0.6       ,5.1811  ,69.913  ,0
4738  ,0.6       ,5.4319  ,69.913  ,0
4739  ,0.6       ,5.1036  ,69.661  ,0
4740  ,0.6       ,5.6818  ,69.913  ,0
4741  ,0.6       ,5.9324  ,69.913  ,0
4742  ,0.6       ,5.6039  ,69.661  ,0
4743  ,0.6       ,6.1816  ,69.913  ,0
4744  ,0.6       ,6.4322  ,69.913  ,0
4745  ,0.6       ,6.103  ,69.661  ,0
4746  ,0.6       ,6.685  ,69.913  ,0
4747  ,0.5       ,6.9331  ,69.913  ,0
4748  ,0.6       ,6.605  ,69.661  ,0
4749  ,0.7       ,0.50194  ,69.41  ,0
4750  ,0.7       ,0.71935  ,69.443  ,0
4751  ,0.7       ,1.0069  ,69.495  ,0
4752  ,0.7       ,1.2372  ,69.404  ,0
4753  ,0.7       ,0.80156  ,69.211  ,0
4754  ,0.7       ,1.4796  ,69.312  ,0
4755  ,0.6       ,1.702  ,69.343  ,0
4756  ,0.7       ,1.3315  ,69.17  ,0
4757  ,0.6       ,1.9974  ,69.375  ,0
4758  ,0.6       ,2.254  ,69.396  ,0
4759  ,0.7       ,1.8692  ,69.109  ,0
4760  ,0.6       ,2.513  ,69.405  ,0
4761  ,0.6       ,2.7658  ,69.409  ,0
4762  ,0.6       ,2.4236  ,69.149  ,0
4763  ,0.6       ,3.0178  ,69.41  ,0
4764  ,0.6       ,3.2685  ,69.41  ,0
4765  ,0.6       ,2.9346  ,69.158  ,0
4766  ,0.6       ,3.5198  ,69.41  ,0
4767  ,0.6       ,3.7703  ,69.41  ,0
4768  ,0.6       ,3.4379  ,69.158  ,0
4769  ,0.6       ,4.0215  ,69.41  ,0
4770  ,0.6       ,4.272  ,69.41  ,0
4771  ,0.6       ,3.9404  ,69.158  ,0
4772  ,0.6       ,4.5233  ,69.41  ,0
4773  ,0.6       ,4.7737  ,69.41  ,0
4774  ,0.6       ,4.443  ,69.158  ,0
4775  ,0.6       ,5.0249  ,69.41  ,0
4776  ,0.6       ,5.2753  ,69.41  ,0
4777  ,0.6       ,4.9454  ,69.158  ,0
4778  ,0.6       ,5.5262  ,69.41  ,0
4779  ,0.6       ,5.7761  ,69.41  ,0
4780  ,0.6       ,5.4475  ,69.158  ,0
4781  ,0.6       ,6.0254  ,69.41  ,0
4782  ,0.6       ,6.2746  ,69.41  ,0
4783  ,0.6       ,5.9477  ,69.158  ,0
4784  ,0.6       ,6.5173  ,69.41  ,0
4785  ,0.6       ,6.7701  ,69.41  ,0
4786  ,0.6       ,6.4397  ,69.158  ,0
4787  ,0.7       ,0.4992  ,68.404  ,0
4788  ,0.7       ,0.72292  ,68.428  ,0
4789  ,0.7       ,0.50897  ,68.907  ,0
4790  ,0.7       ,0.97965  ,68.501  ,0
4791  ,0.7       ,0.76571  ,68.98  ,0
4792  ,0.7       ,1.0532  ,69.032  ,0
4793  ,0.7       ,1.2956  ,68.94  ,0
4794  ,0.7       ,0.76065  ,68.729  ,0
4795  ,0.7       ,1.2087  ,68.343  ,0
4796  ,0.7       ,1.4475  ,68.252  ,0
4797  ,0.7       ,1.6652  ,68.292  ,0
4798  ,0.7       ,1.5247  ,68.781  ,0
4799  ,0.7       ,1.2464  ,68.643  ,0
4800  ,0.7       ,1.9275  ,68.359  ,0
4801  ,0.7       ,2.1799  ,68.38  ,0
4802  ,0.7       ,1.7869  ,68.848  ,0
4803  ,0.7       ,2.0823  ,68.88  ,0
4804  ,0.7       ,1.7377  ,68.552  ,0
4805  ,0.7       ,2.4397  ,68.397  ,0
4806  ,0.7       ,2.6949  ,68.402  ,0
4807  ,0.7       ,2.342  ,68.896  ,0
4808  ,0.7       ,2.601  ,68.905  ,0
4809  ,0.7       ,2.2597  ,68.636  ,0
4810  ,0.7       ,2.9483  ,68.404  ,0
4811  ,0.7       ,3.2024  ,68.404  ,0
4812  ,0.6       ,2.8544  ,68.906  ,0
4813  ,0.6       ,3.1063  ,68.907  ,0
4814  ,0.7       ,2.7727  ,68.654  ,0
4815  ,0.7       ,3.4548  ,68.404  ,0
4816  ,0.7       ,3.7088  ,68.404  ,0
4817  ,0.6       ,3.3587  ,68.907  ,0
4818  ,0.6       ,3.61  ,68.907  ,0
4819  ,0.7       ,3.2785  ,68.655  ,0
4820  ,0.7       ,3.9612  ,68.404  ,0
4821  ,0.7       ,4.2152  ,68.404  ,0
4822  ,0.6       ,3.8624  ,68.907  ,0
4823  ,0.6       ,4.1136  ,68.907  ,0
4824  ,0.6       ,3.7832  ,68.655  ,0
4825  ,0.6       ,4.4675  ,68.404  ,0
4826  ,0.6       ,4.7215  ,68.404  ,0
4827  ,0.6       ,4.366  ,68.907  ,0
4828  ,0.6       ,4.6173  ,68.907  ,0
4829  ,0.6       ,4.2879  ,68.655  ,0
4830  ,0.6       ,4.9738  ,68.404  ,0
4831  ,0.6       ,5.2275  ,68.404  ,0
4832  ,0.6       ,4.8696  ,68.907  ,0
4833  ,0.6       ,5.1208  ,68.907  ,0
4834  ,0.6       ,4.7926  ,68.655  ,0
4835  ,0.6       ,5.4798  ,68.404  ,0
4836  ,0.6       ,5.7329  ,68.404  ,0
4837  ,0.6       ,5.3731  ,68.907  ,0
4838  ,0.6       ,5.624  ,68.907  ,0
4839  ,0.6       ,5.2972  ,68.655  ,0
4840  ,0.6       ,5.9849  ,68.404  ,0
4841  ,0.6       ,6.2408  ,68.404  ,0
4842  ,0.6       ,5.8759  ,68.907  ,0
4843  ,0.6       ,6.1252  ,68.907  ,0
4844  ,0.6       ,5.8015  ,68.655  ,0
4845  ,0.6       ,6.4895  ,68.404  ,0
4846  ,0.6       ,6.374  ,68.907  ,0
4847  ,0.6       ,6.6166  ,68.907  ,0
4848  ,0.6       ,6.3022  ,68.655  ,0
4849  ,2.9       ,3.6269  ,46.051  ,0
4850  ,3.1       ,3.6939  ,46.077  ,0
4851  ,2.5       ,3.5153  ,46.249  ,0
4852  ,2.8       ,3.6562  ,46.248  ,0
4853  ,3.0       ,3.7192  ,46.26  ,0
4854  ,2.8       ,3.6626  ,46.278  ,0
4855  ,2.9       ,3.7328  ,46.32  ,0
4856  ,2.9       ,3.748  ,46.38  ,0
4857  ,2.7       ,3.7128  ,46.445  ,0
4858  ,2.8       ,3.7648  ,46.439  ,0
4859  ,2.7       ,3.7216  ,46.475  ,0
4860  ,2.1       ,3.4134  ,46.543  ,0
4861  ,2.4       ,3.5969  ,46.519  ,0
4862  ,2.7       ,3.7311  ,46.504  ,0
4863  ,2.8       ,3.7831  ,46.498  ,0
4864  ,2.5       ,3.679  ,46.547  ,0
4865  ,2.3       ,3.6064  ,46.584  ,0
4866  ,2.6       ,3.7406  ,46.569  ,0
4867  ,2.7       ,3.8024  ,46.557  ,0
4868  ,2.5       ,3.7503  ,46.599  ,0
4869  ,1.7       ,3.2028  ,46.911  ,0
4870  ,2.5       ,3.7604  ,46.629  ,0
4871  ,2.7       ,3.8222  ,46.617  ,0
4872  ,2.6       ,3.8444  ,46.679  ,0
4873  ,1.8       ,3.3746  ,47.008  ,0
4874  ,1.9       ,3.4717  ,46.89  ,0
4875  ,2.5       ,3.8704  ,46.741  ,0
4876  ,2.4       ,3.8261  ,46.782  ,0
4877  ,2.1       ,3.6917  ,46.852  ,0
4878  ,2.3       ,3.84  ,46.813  ,0
4879  ,2.4       ,3.8993  ,46.802  ,0
4880  ,2.3       ,3.8549  ,46.843  ,0
4881  ,1.8       ,3.4764  ,46.972  ,0
4882  ,1.8       ,3.4954  ,47.051  ,0
4883  ,1.9       ,3.5925  ,46.933  ,0
4884  ,2.0       ,3.6965  ,46.935  ,0
4885  ,2.3       ,3.8706  ,46.872  ,0
4886  ,2.4       ,3.9299  ,46.861  ,0
4887  ,2.1       ,3.8272  ,46.929  ,0
4888  ,1.9       ,3.7279  ,47.01  ,0
4889  ,2.2       ,3.9021  ,46.948  ,0
4890  ,2.3       ,3.962  ,46.92  ,0
4891  ,2.1       ,3.9186  ,46.977  ,0
4892  ,1.5       ,2.1423  ,47.936  ,0
4893  ,1.5       ,2.1777  ,48.162  ,0
4894  ,2.1       ,3.9358  ,47.005  ,0
4895  ,2.2       ,3.9957  ,46.978  ,0
4896  ,1.6       ,3.453  ,47.448  ,0
4897  ,2.0       ,3.8995  ,47.067  ,0
4898  ,2.0       ,3.9766  ,47.067  ,0
4899  ,2.1       ,4.031  ,47.034  ,0
4900  ,2.0       ,3.9947  ,47.095  ,0
4901  ,1.6       ,3.714  ,47.365  ,0
4902  ,1.8       ,3.885  ,47.206  ,0
4903  ,1.9       ,4.0134  ,47.123  ,0
4904  ,2.0       ,4.0678  ,47.09  ,0
4905  ,1.5       ,2.3577  ,48.275  ,0
4906  ,1.5       ,2.5821  ,48.56  ,0
4907  ,1.5       ,2.4779  ,48.085  ,0
4908  ,1.6       ,3.6558  ,47.506  ,0
4909  ,1.8       ,3.98  ,47.187  ,0
4910  ,1.7       ,3.9247  ,47.264  ,0
4911  ,1.9       ,4.0531  ,47.181  ,0
4912  ,1.9       ,4.1061  ,47.144  ,0
4913  ,1.8       ,4.0727  ,47.208  ,0
4914  ,1.6       ,3.7345  ,47.442  ,0
4915  ,1.6       ,3.8502  ,47.36  ,0
4916  ,1.6       ,3.792  ,47.501  ,0
4917  ,1.7       ,3.9452  ,47.341  ,0
4918  ,1.8       ,4.093  ,47.235  ,0
4919  ,1.8       ,4.146  ,47.198  ,0
4920  ,1.6       ,3.5918  ,47.608  ,0
4921  ,1.5       ,3.6493  ,47.667  ,0
4922  ,1.7       ,4.0635  ,47.303  ,0
4923  ,1.6       ,3.989  ,47.399  ,0
4924  ,1.7       ,4.1368  ,47.293  ,0
4925  ,1.8       ,4.1875  ,47.25  ,0
4926  ,1.6       ,4.1579  ,47.319  ,0
4927  ,1.5       ,2.7395  ,48.728  ,0
4928  ,1.5       ,2.8152  ,48.366  ,0
4929  ,1.5       ,2.9344  ,48.139  ,0
4930  ,1.5       ,3.398  ,47.924  ,0
4931  ,1.5       ,3.0917  ,48.307  ,0
4932  ,1.5       ,3.9382  ,47.503  ,0
4933  ,1.5       ,4.0565  ,47.465  ,0
4934  ,1.6       ,4.1798  ,47.344  ,0
4935  ,1.7       ,4.2304  ,47.302  ,0
4936  ,1.5       ,4.1587  ,47.416  ,0
4937  ,1.5       ,4.1079  ,47.519  ,0
4938  ,1.5       ,4.2312  ,47.399  ,0
4939  ,1.6       ,4.275  ,47.352  ,0
4940  ,1.5       ,4.2539  ,47.424  ,0
4941  ,1.5       ,3.5845  ,47.932  ,0
4942  ,1.5       ,3.3973  ,48.088  ,0
4943  ,1.5       ,3.7307  ,47.811  ,0
4944  ,1.4       ,3.9409  ,47.711  ,0
4945  ,1.4       ,3.7299  ,47.975  ,0
4946  ,1.4       ,4.0713  ,47.627  ,0
4947  ,1.4       ,4.1735  ,47.578  ,0
4948  ,1.4       ,4.0065  ,47.77  ,0
4949  ,1.4       ,4.2774  ,47.448  ,0
4950  ,1.5       ,4.3212  ,47.401  ,0
4951  ,1.5       ,2.8174  ,48.909  ,0
4952  ,1.4       ,3.0458  ,49.191  ,0
4953  ,1.5       ,3.0505  ,48.716  ,0
4954  ,1.5       ,3.1824  ,48.496  ,0
4955  ,1.5       ,3.3015  ,48.268  ,0
4956  ,1.5       ,3.488  ,48.276  ,0
4957  ,1.5       ,3.2604  ,48.677  ,0
4958  ,1.4       ,4.2628  ,47.517  ,0
4959  ,1.3       ,4.2263  ,47.625  ,0
4960  ,1.4       ,4.3301  ,47.495  ,0
4961  ,1.4       ,4.369  ,47.449  ,0
4962  ,1.3       ,4.3545  ,47.519  ,0
4963  ,1.4       ,4.0014  ,47.907  ,0
4964  ,1.3       ,4.1318  ,47.823  ,0
4965  ,1.3       ,4.2022  ,47.713  ,0
4966  ,1.3       ,4.2915  ,47.652  ,0
4967  ,1.3       ,4.197  ,47.85  ,0
4968  ,1.3       ,4.3795  ,47.541  ,0
4969  ,1.3       ,4.4184  ,47.496  ,0
4970  ,1.4       ,3.7103  ,48.181  ,0
4971  ,1.4       ,3.8564  ,48.059  ,0
4972  ,1.4       ,3.6145  ,48.361  ,0
4973  ,1.3       ,3.9817  ,48.113  ,0
4974  ,1.2       ,4.3674  ,47.61  ,0
4975  ,1.2       ,4.3432  ,47.698  ,0
4976  ,1.2       ,4.4312  ,47.587  ,0
4977  ,1.2       ,4.4689  ,47.54  ,0
4978  ,1.2       ,4.4568  ,47.609  ,0
4979  ,1.4       ,3.143  ,49.301  ,0
4980  ,1.4       ,3.2257  ,49.007  ,0
4981  ,1.4       ,3.3717  ,48.842  ,0
4982  ,1.4       ,3.5036  ,48.621  ,0
4983  ,1.4       ,3.7258  ,48.526  ,0
4984  ,1.4       ,3.4689  ,48.951  ,0
4985  ,1.2       ,4.2406  ,47.913  ,0
4986  ,1.2       ,4.3109  ,47.803  ,0
4987  ,1.2       ,4.3868  ,47.761  ,0
4988  ,1.1       ,4.4828  ,47.63  ,0
4989  ,1.1       ,4.5204  ,47.583  ,0
4990  ,1.1       ,4.4748  ,47.702  ,0
4991  ,1.1       ,4.4425  ,47.806  ,0
4992  ,1.0       ,4.5385  ,47.676  ,0
4993  ,1.0       ,4.5729  ,47.625  ,0
4994  ,1.0       ,4.565  ,47.696  ,0
4995  ,1.3       ,3.9566  ,48.402  ,0
4996  ,1.3       ,3.8456  ,48.662  ,0
4997  ,1.2       ,4.2145  ,48.059  ,0
4998  ,1.2       ,4.3284  ,48.011  ,0
4999  ,1.2       ,4.1893  ,48.348  ,0
5000  ,1.1       ,4.4271  ,47.914  ,0
5001  ,1.0       ,4.5151  ,47.855  ,0
5002  ,1.1       ,4.401  ,48.06  ,0
5003  ,1.0       ,4.592  ,47.716  ,0
5004  ,0.9       ,4.6265  ,47.665  ,0
5005  ,1.4       ,3.2545  ,49.391  ,0
5006  ,1.3       ,3.4724  ,49.612  ,0
5007  ,1.4       ,3.4344  ,49.207  ,0
5008  ,1.4       ,3.5804  ,49.041  ,0
5009  ,1.3       ,3.7614  ,48.891  ,0
5010  ,1.3       ,3.9921  ,48.767  ,0
5011  ,1.3       ,3.7269  ,49.146  ,0
5012  ,0.9       ,4.5913  ,47.787  ,0
5013  ,0.9       ,4.5759  ,47.894  ,0
5014  ,0.9       ,4.6528  ,47.755  ,0
5015  ,0.9       ,4.6811  ,47.703  ,0
5016  ,0.8       ,4.6804  ,47.774  ,0
5017  ,1.1       ,4.4132  ,48.171  ,0
5018  ,1.0       ,4.5119  ,48.073  ,0
5019  ,1.0       ,4.5723  ,47.994  ,0
5020  ,0.9       ,4.6486  ,47.926  ,0
5021  ,0.9       ,4.5845  ,48.104  ,0
5022  ,0.8       ,4.7084  ,47.792  ,0
5023  ,0.8       ,4.7367  ,47.74  ,0
5024  ,0.8       ,4.7156  ,47.862  ,0
5025  ,0.8       ,4.712  ,47.962  ,0
5026  ,0.7       ,4.7719  ,47.828  ,0
5027  ,0.7       ,4.7933  ,47.775  ,0
5028  ,0.7       ,4.8004  ,47.845  ,0
5029  ,1.2       ,3.6585  ,49.699  ,0
5030  ,1.2       ,3.9211  ,49.751  ,0
5031  ,1.3       ,3.732  ,49.383  ,0
5032  ,1.2       ,3.9129  ,49.233  ,0
5033  ,1.2       ,4.1767  ,48.764  ,0
5034  ,1.2       ,4.0924  ,48.993  ,0
5035  ,1.2       ,4.0975  ,49.23  ,0
5036  ,0.7       ,4.8295  ,47.862  ,0
5037  ,0.6       ,4.8509  ,47.809  ,0
5038  ,1.0       ,4.587  ,48.263  ,0
5039  ,0.8       ,4.7234  ,48.075  ,0
5040  ,0.8       ,4.7904  ,48.012  ,0
5041  ,0.8       ,4.7258  ,48.234  ,0
5042  ,0.7       ,4.8467  ,47.918  ,0
5043  ,0.6       ,4.8971  ,47.881  ,0
5044  ,0.7       ,4.8581  ,48.031  ,0
5045  ,0.6       ,4.9095  ,47.841  ,0
5046  ,0.6       ,4.9267  ,47.897  ,0
5047  ,0.5       ,4.9568  ,47.911  ,0
5048  ,0.5       ,4.9692  ,47.871  ,0
5049  ,1.1       ,4.1123  ,49.806  ,0
5050  ,1.0       ,4.3548  ,49.831  ,0
5051  ,1.1       ,4.1092  ,49.525  ,0
5052  ,1.1       ,4.2887  ,49.286  ,0
5053  ,1.0       ,4.4535  ,49.118  ,0
5054  ,1.0       ,4.4652  ,49.413  ,0
5055  ,0.7       ,4.8798  ,48.151  ,0
5056  ,0.5       ,4.9874  ,47.925  ,0
5057  ,0.5       ,5.0299  ,47.9  ,0
5058  ,0.6       ,5.0187  ,48.116  ,0
5059  ,0.5       ,5.0701  ,47.984  ,0
5060  ,0.4       ,5.0918  ,47.926  ,0
5061  ,0.4       ,5.1013  ,47.996  ,0
5062  ,0.6       ,5.015  ,48.215  ,0
5063  ,0.5       ,5.076  ,48.153  ,0
5064  ,0.4       ,5.1319  ,48.006  ,0
5065  ,0.4       ,5.1535  ,47.948  ,0
5066  ,1.0       ,4.4811  ,49.865  ,0
5067  ,1.0       ,4.4267  ,49.615  ,0
5068  ,1.0       ,4.5915  ,49.448  ,0
5069  ,0.9       ,4.7534  ,49.258  ,0
5070  ,0.6       ,5.0775  ,48.366  ,0
5071  ,0.4       ,5.1431  ,48.074  ,0
5072  ,0.5       ,5.1394  ,48.173  ,0
5073  ,0.4       ,5.1953  ,48.026  ,0
5074  ,0.3       ,5.2136  ,47.968  ,0
5075  ,0.4       ,5.2248  ,48.036  ,0
5076  ,0.3       ,5.2543  ,48.046  ,0
5077  ,0.3       ,5.2726  ,47.987  ,0
5078  ,0.4       ,5.2721  ,48.111  ,0
5079  ,0.3       ,5.3199  ,48.063  ,0
5080  ,0.3       ,5.3316  ,48.006  ,0
5081  ,0.3       ,5.3494  ,48.072  ,0
5082  ,0.9       ,4.618  ,49.886  ,0
5083  ,0.9       ,4.8367  ,50.052  ,0
5084  ,0.9       ,4.7284  ,49.468  ,0
5085  ,0.9       ,4.6899  ,49.67  ,0
5086  ,0.8       ,4.8517  ,49.48  ,0
5087  ,0.8       ,4.9925  ,49.293  ,0
5088  ,0.8       ,4.9675  ,49.503  ,0
5089  ,0.3       ,5.3792  ,48.079  ,0
5090  ,0.2       ,5.3909  ,48.022  ,0
5091  ,0.7       ,5.1819  ,49.142  ,0
5092  ,0.2       ,5.4505  ,48.038  ,0
5093  ,0.4       ,5.4185  ,48.514  ,0
5094  ,0.2       ,5.4949  ,48.094  ,0
5095  ,0.2       ,5.5104  ,48.051  ,0
5096  ,0.2       ,5.5249  ,48.101  ,0
5097  ,0.8       ,5.045  ,50.135  ,0
5098  ,0.7       ,5.3717  ,50.203  ,0
5099  ,0.8       ,5.0351  ,49.773  ,0
5100  ,0.7       ,5.1758  ,49.586  ,0
5101  ,0.6       ,5.2809  ,49.306  ,0
5102  ,0.6       ,5.3546  ,49.132  ,0
5103  ,0.6       ,5.3485  ,49.576  ,0
5104  ,0.2       ,5.5551  ,48.106  ,0
5105  ,0.2       ,5.5706  ,48.063  ,0
5106  ,0.3       ,5.5285  ,48.465  ,0
5107  ,0.2       ,5.6311  ,48.074  ,0
5108  ,0.3       ,5.6501  ,48.317  ,0
5109  ,0.6       ,5.5602  ,50.207  ,0
5110  ,0.6       ,5.4319  ,49.861  ,0
5111  ,0.6       ,5.537  ,49.581  ,0
5112  ,0.5       ,5.5601  ,49.33  ,0
5113  ,0.5       ,5.6435  ,49.614  ,0
5114  ,0.2       ,5.7224  ,48.086  ,0
5115  ,0.2       ,5.7435  ,48.169  ,0
5116  ,0.5       ,5.6222  ,49.111  ,0
5117  ,0.4       ,5.7287  ,49.145  ,0
5118  ,0.3       ,5.8389  ,48.77  ,0
5119  ,0.2       ,5.8913  ,48.498  ,0
5120  ,0.2       ,5.899  ,48.301  ,0
5121  ,0.7       ,4.8806  ,48.084  ,0
5122  ,0.6       ,4.9369  ,47.99  ,0
5123  ,0.6       ,4.9586  ,48.111  ,0
5124  ,0.5       ,5.01  ,47.979  ,0
5125  ,0.5       ,5.0196  ,48.049  ,0
5126  ,1.3       ,4.1127  ,48.083  ,0
5127  ,1.3       ,3.9678  ,48.236  ,0
5128  ,1.3       ,4.0876  ,48.372  ,0
5129  ,1.2       ,4.2005  ,48.182  ,0
5130  ,1.0       ,4.5863  ,48.175  ,0
5131  ,0.9       ,4.6467  ,48.096  ,0
5132  ,0.9       ,4.6491  ,48.255  ,0
5133  ,0.8       ,4.7251  ,48.146  ,0
5134  ,0.3       ,5.3853  ,48.132  ,0
5135  ,0.3       ,5.4268  ,48.083  ,0
5136  ,0.2       ,5.4567  ,48.09  ,0
5137  ,0.3       ,5.4712  ,48.14  ,0
5138  ,0.2       ,5.6345  ,48.103  ,0
5139  ,0.2       ,5.6649  ,48.108  ,0
5140  ,0.2       ,5.6859  ,48.191  ,0
5141  ,0.2       ,5.7259  ,48.116  ,0
5142  ,0.2       ,5.8282  ,48.11  ,0
5143  ,0.2       ,5.8876  ,48.173  ,0
5144  ,0.5       ,5.1508  ,48.279  ,0
5145  ,0.5       ,5.156  ,48.393  ,0
5146  ,0.4       ,5.2179  ,48.2  ,0
5147  ,0.4       ,5.2835  ,48.217  ,0
5148  ,0.3       ,5.5468  ,48.18  ,0
5149  ,0.2       ,5.5925  ,48.143  ,0
5150  ,0.3       ,5.5904  ,48.303  ,0
5151  ,0.2       ,5.6438  ,48.231  ,0
5152  ,0.2       ,5.6263  ,48.177  ,0
5153  ,0.2       ,5.762  ,48.244  ,0
5154  ,0.2       ,5.802  ,48.168  ,0
5155  ,0.2       ,5.8581  ,48.313  ,0
5156  ,0.2       ,5.8613  ,48.231  ,0
5157  ,0.2       ,5.8467  ,48.185  ,0
5158  ,1.2       ,4.2449  ,48.505  ,0
5159  ,1.1       ,4.3578  ,48.315  ,0
5160  ,1.0       ,4.4687  ,48.328  ,0
5161  ,1.1       ,4.3452  ,48.731  ,0
5162  ,1.0       ,4.5316  ,48.407  ,0
5163  ,0.8       ,4.7654  ,48.378  ,0
5164  ,0.8       ,4.8414  ,48.27  ,0
5165  ,0.7       ,4.9194  ,48.296  ,0
5166  ,0.7       ,4.9767  ,48.333  ,0
5167  ,0.7       ,4.9818  ,48.447  ,0
5168  ,0.3       ,5.3775  ,48.228  ,0
5169  ,0.4       ,5.3969  ,48.408  ,0
5170  ,0.4       ,5.4388  ,48.434  ,0
5171  ,0.3       ,5.4633  ,48.236  ,0
5172  ,0.3       ,5.5069  ,48.359  ,0
5173  ,0.3       ,5.4251  ,48.232  ,0
5174  ,0.4       ,5.3232  ,48.317  ,0
5175  ,0.3       ,5.5007  ,48.272  ,0
5176  ,0.3       ,5.679  ,48.4  ,0
5177  ,0.2       ,5.7324  ,48.327  ,0
5178  ,0.3       ,5.8241  ,48.511  ,0
5179  ,0.2       ,5.8285  ,48.396  ,0
5180  ,0.2       ,5.7908  ,48.326  ,0
5181  ,1.0       ,4.4554  ,48.848  ,0
5182  ,0.9       ,4.6418  ,48.524  ,0
5183  ,0.9       ,4.6319  ,48.976  ,0
5184  ,1.0       ,4.5236  ,48.589  ,0
5185  ,0.8       ,4.7574  ,48.56  ,0
5186  ,0.6       ,5.1776  ,48.536  ,0
5187  ,0.5       ,5.3246  ,48.541  ,0
5188  ,0.6       ,5.2641  ,48.78  ,0
5189  ,0.5       ,5.3665  ,48.566  ,0
5190  ,0.5       ,5.251  ,48.449  ,0
5191  ,0.4       ,5.3449  ,48.461  ,0
5192  ,0.4       ,5.5602  ,48.576  ,0
5193  ,0.3       ,5.6284  ,48.501  ,0
5194  ,0.3       ,5.7255  ,48.77  ,0
5195  ,0.3       ,5.7735  ,48.613  ,0
5196  ,0.3       ,5.7107  ,48.511  ,0
5197  ,0.9       ,4.7966  ,49.052  ,0
5198  ,0.8       ,4.9199  ,49.064  ,0
5199  ,0.7       ,5.0229  ,48.669  ,0
5200  ,0.7       ,5.0357  ,49.087  ,0
5201  ,0.7       ,5.1094  ,48.912  ,0
5202  ,0.8       ,4.9221  ,48.636  ,0
5203  ,0.9       ,4.7985  ,48.782  ,0
5204  ,0.6       ,5.1179  ,48.725  ,0
5205  ,0.5       ,5.3658  ,48.893  ,0
5206  ,0.4       ,5.4682  ,48.679  ,0
5207  ,0.5       ,5.4648  ,49.057  ,0
5208  ,0.4       ,5.6334  ,48.872  ,0
5209  ,0.5       ,5.3743  ,48.706  ,0
5210  ,0.4       ,5.5681  ,48.715  ,0
5211  ,1.0       ,0.125  ,45.919  ,0
5212  ,1.0       ,0.15625  ,46.066  ,0
5213  ,1.0       ,0.125  ,45.858  ,0
5214  ,1.0       ,0.15625  ,45.919  ,0
5215  ,1.0       ,0.1875  ,45.919  ,0
5216  ,1.0       ,0.1875  ,45.858  ,0
5217  ,1.1       ,0.21875  ,46.272  ,0
5218  ,1.1       ,0.25  ,46.56  ,0
5219  ,1.0       ,0.22846  ,46.143  ,0
5220  ,1.1       ,0.29096  ,46.263  ,0
5221  ,1.0       ,0.21003  ,46.063  ,0
5222  ,1.0       ,0.21003  ,45.977  ,0
5223  ,1.0       ,0.24127  ,45.916  ,0
5224  ,1.0       ,0.28224  ,46.054  ,0
5225  ,1.0       ,0.25  ,45.858  ,0
5226  ,1.0       ,0.27253  ,45.916  ,0
5227  ,1.3       ,0.42188  ,47.868  ,0
5228  ,1.0       ,0.30378  ,45.916  ,0
5229  ,1.0       ,0.3125  ,45.858  ,0
5230  ,1.1       ,0.34928  ,46.281  ,0
5231  ,1.0       ,0.35899  ,46.152  ,0
5232  ,1.0       ,0.34435  ,46.055  ,0
5233  ,1.0       ,0.32591  ,45.975  ,0
5234  ,1.0       ,0.36588  ,45.917  ,0
5235  ,1.0       ,0.40267  ,46.073  ,0
5236  ,1.0       ,0.375  ,45.858  ,0
5237  ,1.0       ,0.39714  ,45.917  ,0
5238  ,1.1       ,0.31667  ,46.731  ,0
5239  ,1.1       ,0.34792  ,46.562  ,0
5240  ,1.1       ,0.37364  ,46.381  ,0
5241  ,1.1       ,0.44167  ,46.27  ,0
5242  ,1.1       ,0.44031  ,46.552  ,0
5243  ,1.0       ,0.42839  ,45.917  ,0
5244  ,1.0       ,0.4375  ,45.858  ,0
5245  ,1.1       ,0.48847  ,46.17  ,0
5246  ,1.1       ,0.51283  ,46.27  ,0
5247  ,1.0       ,0.46564  ,46.075  ,0
5248  ,1.0       ,0.451  ,45.978  ,0
5249  ,1.0       ,0.49136  ,45.919  ,0
5250  ,1.0       ,0.5368  ,46.075  ,0
5251  ,1.0       ,0.5  ,45.858  ,0
5252  ,1.0       ,0.52261  ,45.919  ,0
5253  ,1.3       ,0.43675  ,47.458  ,0
5254  ,1.2       ,0.47218  ,46.973  ,0
5255  ,1.0       ,0.55386  ,45.919  ,0
5256  ,1.0       ,0.5625  ,45.858  ,0
5257  ,1.1       ,0.53166  ,46.561  ,0
5258  ,1.1       ,0.55737  ,46.38  ,0
5259  ,1.1       ,0.60418  ,46.279  ,0
5260  ,1.1       ,0.61941  ,46.153  ,0
5261  ,1.1       ,0.66395  ,46.262  ,0
5262  ,1.1       ,0.59983  ,46.073  ,0
5263  ,1.0       ,0.577  ,45.978  ,0
5264  ,1.0       ,0.61689  ,45.917  ,0
5265  ,1.1       ,0.6596  ,46.056  ,0
5266  ,1.0       ,0.625  ,45.858  ,0
5267  ,1.0       ,0.64814  ,45.917  ,0
5268  ,1.3       ,0.62455  ,47.832  ,0
5269  ,1.4       ,0.9128  ,47.831  ,0
5270  ,1.3       ,0.54642  ,47.667  ,0
5271  ,1.3       ,0.63943  ,47.422  ,0
5272  ,1.1       ,0.57677  ,46.749  ,0
5273  ,1.2       ,0.63435  ,46.99  ,0
5274  ,1.1       ,0.69383  ,46.578  ,0
5275  ,1.0       ,0.67939  ,45.917  ,0
5276  ,1.0       ,0.6875  ,45.858  ,0
5277  ,1.1       ,0.72147  ,46.278  ,0
5278  ,1.1       ,0.7367  ,46.151  ,0
5279  ,1.1       ,0.7211  ,46.056  ,0
5280  ,1.0       ,0.70152  ,45.976  ,0
5281  ,1.0       ,0.74088  ,45.917  ,0
5282  ,1.1       ,0.77862  ,46.071  ,0
5283  ,1.0       ,0.75  ,45.858  ,0
5284  ,1.1       ,0.77213  ,45.917  ,0
5285  ,1.1       ,0.76587  ,46.388  ,0
5286  ,1.1       ,0.81097  ,46.576  ,0
5287  ,1.1       ,0.83862  ,46.277  ,0
5288  ,1.1       ,0.80338  ,45.917  ,0
5289  ,1.1       ,0.8125  ,45.858  ,0
5290  ,1.2       ,0.71945  ,47.193  ,0
5291  ,1.3       ,0.82911  ,47.402  ,0
5292  ,1.2       ,0.82404  ,46.969  ,0
5293  ,1.1       ,0.85487  ,46.151  ,0
5294  ,1.1       ,0.89927  ,46.261  ,0
5295  ,1.1       ,0.84011  ,46.071  ,0
5296  ,1.1       ,0.8245  ,45.976  ,0
5297  ,1.1       ,0.86487  ,45.917  ,0
5298  ,1.1       ,0.90075  ,46.056  ,0
5299  ,1.1       ,0.875  ,45.858  ,0
5300  ,1.1       ,0.89612  ,45.917  ,0
5301  ,1.1       ,0.88689  ,46.736  ,0
5302  ,1.1       ,0.95893  ,46.546  ,0
5303  ,1.2       ,0.972  ,46.939  ,0
5304  ,1.1       ,0.92737  ,45.917  ,0
5305  ,1.1       ,0.9375  ,45.858  ,0
5306  ,1.1       ,0.96712  ,46.381  ,0
5307  ,1.1       ,1.043  ,46.541  ,0
5308  ,1.1       ,0.9523  ,46.28  ,0
5309  ,1.1       ,0.96855  ,46.155  ,0
5310  ,1.1       ,1.0364  ,46.275  ,0
5311  ,1.1       ,0.96192  ,46.057  ,0
5312  ,1.1       ,0.94715  ,45.977  ,0
5313  ,1.1       ,0.98853  ,45.918  ,0
5314  ,1.1       ,1.0149  ,46.075  ,0
5315  ,1.1       ,1  ,45.858  ,0
5316  ,1.1       ,1.0198  ,45.918  ,0
5317  ,1.4       ,1.1173  ,47.807  ,0
5318  ,1.4       ,1.3654  ,47.754  ,0
5319  ,1.3       ,0.95356  ,47.607  ,0
5320  ,1.3       ,1.0336  ,47.378  ,0
5321  ,1.1       ,1.051  ,45.918  ,0
5322  ,1.1       ,1.0625  ,45.858  ,0
5323  ,1.1       ,1.1052  ,46.28  ,0
5324  ,1.1       ,1.0904  ,46.179  ,0
5325  ,1.1       ,1.0774  ,46.078  ,0
5326  ,1.1       ,1.0708  ,45.98  ,0
5327  ,1.1       ,1.1135  ,45.92  ,0
5328  ,1.1       ,1.1462  ,46.083  ,0
5329  ,1.1       ,1.125  ,45.858  ,0
5330  ,1.1       ,1.1447  ,45.92  ,0
5331  ,1.2       ,1.083  ,47.135  ,0
5332  ,1.2       ,1.1458  ,46.901  ,0
5333  ,1.3       ,1.2074  ,47.34  ,0
5334  ,1.2       ,1.147  ,46.697  ,0
5335  ,1.2       ,1.258  ,46.893  ,0
5336  ,1.1       ,1.1143  ,46.564  ,0
5337  ,1.1       ,1.1225  ,46.4  ,0
5338  ,1.1       ,1.1765  ,46.304  ,0
5339  ,1.1       ,1.2265  ,46.556  ,0
5340  ,1.1       ,1.176  ,45.92  ,0
5341  ,1.1       ,1.1875  ,45.858  ,0
5342  ,1.1       ,1.2313  ,46.183  ,0
5343  ,1.1       ,1.2486  ,46.302  ,0
5344  ,1.1       ,1.2108  ,46.083  ,0
5345  ,1.1       ,1.1978  ,45.982  ,0
5346  ,1.1       ,1.2406  ,45.92  ,0
5347  ,1.1       ,1.2829  ,46.082  ,0
5348  ,1.1       ,1.25  ,45.858  ,0
5349  ,1.1       ,1.2718  ,45.92  ,0
5350  ,1.1       ,1.3031  ,45.92  ,0
5351  ,1.1       ,1.3125  ,45.858  ,0
5352  ,1.2       ,1.3272  ,46.546  ,0
5353  ,1.1       ,1.2945  ,46.413  ,0
5354  ,1.1       ,1.3494  ,46.292  ,0
5355  ,1.1       ,1.3654  ,46.161  ,0
5356  ,1.1       ,1.4114  ,46.272  ,0
5357  ,1.1       ,1.3465  ,46.079  ,0
5358  ,1.1       ,1.326  ,45.98  ,0
5359  ,1.1       ,1.3666  ,45.918  ,0
5360  ,1.1       ,1.4085  ,46.06  ,0
5361  ,1.1       ,1.375  ,45.858  ,0
5362  ,1.1       ,1.3979  ,45.918  ,0
5363  ,1.4       ,1.5185  ,47.708  ,0
5364  ,1.3       ,1.311  ,47.538  ,0
5365  ,1.3       ,1.3604  ,47.295  ,0
5366  ,1.2       ,1.3587  ,46.931  ,0
5367  ,1.2       ,1.3598  ,46.727  ,0
5368  ,1.2       ,1.4279  ,46.584  ,0
5369  ,1.1       ,1.4291  ,45.918  ,0
5370  ,1.1       ,1.4375  ,45.858  ,0
5371  ,1.3       ,1.419  ,47.122  ,0
5372  ,1.3       ,1.5226  ,47.32  ,0
5373  ,1.2       ,1.5208  ,46.956  ,0
5374  ,1.1       ,1.4691  ,46.294  ,0
5375  ,1.1       ,1.4852  ,46.163  ,0
5376  ,1.1       ,1.4704  ,46.06  ,0
5377  ,1.1       ,1.4514  ,45.978  ,0
5378  ,1.1       ,1.491  ,45.918  ,0
5379  ,1.1       ,1.5281  ,46.082  ,0
5380  ,1.1       ,1.5  ,45.858  ,0
5381  ,1.1       ,1.5223  ,45.918  ,0
5382  ,1.2       ,1.4973  ,46.424  ,0
5383  ,1.2       ,1.5299  ,46.605  ,0
5384  ,1.2       ,1.5712  ,46.315  ,0
5385  ,1.1       ,1.5535  ,45.918  ,0
5386  ,1.1       ,1.5625  ,45.858  ,0
5387  ,1.2       ,1.6178  ,46.183  ,0
5388  ,1.2       ,1.646  ,46.314  ,0
5389  ,1.1       ,1.5914  ,46.083  ,0
5390  ,1.1       ,1.5765  ,45.98  ,0
5391  ,1.1       ,1.6167  ,45.92  ,0
5392  ,1.2       ,1.6662  ,46.082  ,0
5393  ,1.1       ,1.625  ,45.858  ,0
5394  ,1.1       ,1.648  ,45.92  ,0
5395  ,1.2       ,1.5817  ,46.768  ,0
5396  ,1.3       ,1.642  ,46.959  ,0
5397  ,1.2       ,1.6511  ,46.608  ,0
5398  ,1.2       ,1.6792  ,45.92  ,0
5399  ,1.2       ,1.6875  ,45.858  ,0
5400  ,1.2       ,1.7066  ,46.424  ,0
5401  ,1.2       ,1.7533  ,46.292  ,0
5402  ,1.2       ,1.7584  ,46.587  ,0
5403  ,1.2       ,1.7527  ,46.16  ,0
5404  ,1.2       ,1.8134  ,46.27  ,0
5405  ,1.2       ,1.7294  ,46.079  ,0
5406  ,1.2       ,1.703  ,45.979  ,0
5407  ,1.2       ,1.7425  ,45.917  ,0
5408  ,1.2       ,1.7895  ,46.057  ,0
5409  ,1.2       ,1.75  ,45.858  ,0
5410  ,1.2       ,1.7737  ,45.917  ,0
5411  ,1.4       ,1.6929  ,47.72  ,0
5412  ,1.4       ,1.8998  ,47.708  ,0
5413  ,1.4       ,1.6385  ,47.504  ,0
5414  ,1.3       ,1.6971  ,47.331  ,0
5415  ,1.3       ,1.7034  ,47.121  ,0
5416  ,1.3       ,1.7642  ,46.934  ,0
5417  ,1.3       ,1.8193  ,47.306  ,0
5418  ,1.2       ,1.805  ,45.917  ,0
5419  ,1.2       ,1.8125  ,45.858  ,0
5420  ,1.2       ,1.8724  ,46.285  ,0
5421  ,1.2       ,1.8718  ,46.153  ,0
5422  ,1.2       ,1.8511  ,46.057  ,0
5423  ,1.2       ,1.8278  ,45.976  ,0
5424  ,1.2       ,1.8666  ,45.917  ,0
5425  ,1.2       ,1.9101  ,46.072  ,0
5426  ,1.2       ,1.875  ,45.858  ,0
5427  ,1.2       ,1.8978  ,45.917  ,0
5428  ,1.3       ,1.8251  ,46.767  ,0
5429  ,1.2       ,1.8807  ,46.582  ,0
5430  ,1.3       ,1.8865  ,46.929  ,0
5431  ,1.2       ,1.9274  ,46.397  ,0
5432  ,1.2       ,1.9858  ,46.28  ,0
5433  ,1.3       ,1.9941  ,46.577  ,0
5434  ,1.2       ,1.9291  ,45.917  ,0
5435  ,1.2       ,1.9375  ,45.858  ,0
5436  ,1.2       ,1.9897  ,46.152  ,0
5437  ,1.3       ,2.0448  ,46.264  ,0
5438  ,1.2       ,1.9715  ,46.072  ,0
5439  ,1.2       ,1.9509  ,45.976  ,0
5440  ,1.2       ,1.9905  ,45.917  ,0
5441  ,1.2       ,2.0305  ,46.056  ,0
5442  ,1.2       ,2  ,45.858  ,0
5443  ,1.2       ,2.0218  ,45.917  ,0
5444  ,1.2       ,2.053  ,45.917  ,0
5445  ,1.2       ,2.0625  ,45.858  ,0
5446  ,1.4       ,1.9446  ,47.343  ,0
5447  ,1.3       ,1.9509  ,47.133  ,0
5448  ,1.3       ,2.0118  ,46.966  ,0
5449  ,1.3       ,2.126  ,46.387  ,0
5450  ,1.3       ,2.0995  ,46.283  ,0
5451  ,1.3       ,2.1034  ,46.156  ,0
5452  ,1.3       ,2.1846  ,46.278  ,0
5453  ,1.3       ,2.0916  ,46.057  ,0
5454  ,1.2       ,2.0734  ,45.977  ,0
5455  ,1.3       ,2.1142  ,45.918  ,0
5456  ,1.3       ,2.1463  ,46.076  ,0
5457  ,1.3       ,2.125  ,45.858  ,0
5458  ,1.3       ,2.1454  ,45.918  ,0
5459  ,1.4       ,2.0941  ,47.751  ,0
5460  ,1.5       ,2.2498  ,47.788  ,0
5461  ,1.4       ,2.0073  ,47.56  ,0
5462  ,1.4       ,2.1389  ,47.386  ,0
5463  ,1.3       ,2.0848  ,46.747  ,0
5464  ,1.3       ,2.1315  ,46.561  ,0
5465  ,1.4       ,2.1492  ,46.95  ,0
5466  ,1.3       ,2.2166  ,46.557  ,0
5467  ,1.3       ,2.1767  ,45.918  ,0
5468  ,1.3       ,2.1875  ,45.858  ,0
5469  ,1.3       ,2.2558  ,46.284  ,0
5470  ,1.3       ,2.2293  ,46.18  ,0
5471  ,1.3       ,2.2092  ,46.078  ,0
5472  ,1.3       ,2.1974  ,45.98  ,0
5473  ,1.3       ,2.2395  ,45.92  ,0
5474  ,1.3       ,2.2804  ,46.084  ,0
5475  ,1.3       ,2.25  ,45.858  ,0
5476  ,1.3       ,2.2708  ,45.92  ,0
5477  ,1.3       ,2.2917  ,46.409  ,0
5478  ,1.4       ,2.2973  ,46.584  ,0
5479  ,1.3       ,2.3365  ,46.311  ,0
5480  ,1.3       ,2.302  ,45.92  ,0
5481  ,1.3       ,2.3125  ,45.858  ,0
5482  ,1.4       ,2.3742  ,46.184  ,0
5483  ,1.4       ,2.4101  ,46.309  ,0
5484  ,1.3       ,2.3453  ,46.084  ,0
5485  ,1.3       ,2.3252  ,45.983  ,0
5486  ,1.3       ,2.3669  ,45.92  ,0
5487  ,1.4       ,2.419  ,46.082  ,0
5488  ,1.4       ,2.375  ,45.858  ,0
5489  ,1.4       ,2.3982  ,45.92  ,0
5490  ,1.4       ,2.2395  ,47.182  ,0
5491  ,1.4       ,2.3022  ,47.398  ,0
5492  ,1.4       ,2.3125  ,46.963  ,0
5493  ,1.4       ,2.3705  ,46.75  ,0
5494  ,1.4       ,2.4456  ,46.603  ,0
5495  ,1.4       ,2.4608  ,46.982  ,0
5496  ,1.4       ,2.4294  ,45.92  ,0
5497  ,1.4       ,2.4375  ,45.858  ,0
5498  ,1.4       ,2.4773  ,46.417  ,0
5499  ,1.4       ,2.515  ,46.29  ,0
5500  ,1.4       ,2.5505  ,46.584  ,0
5501  ,1.4       ,2.5069  ,46.161  ,0
5502  ,1.4       ,2.5741  ,46.27  ,0
5503  ,1.4       ,2.4824  ,46.08  ,0
5504  ,1.4       ,2.4535  ,45.98  ,0
5505  ,1.4       ,2.4928  ,45.918  ,0
5506  ,1.4       ,2.5414  ,46.06  ,0
5507  ,1.4       ,2.5  ,45.858  ,0
5508  ,1.4       ,2.5241  ,45.918  ,0
5509  ,1.5       ,2.4318  ,47.814  ,0
5510  ,1.5       ,2.6118  ,47.927  ,0
5511  ,1.5       ,2.3836  ,47.629  ,0
5512  ,1.5       ,2.4842  ,47.425  ,0
5513  ,1.4       ,2.5553  ,45.918  ,0
5514  ,1.4       ,2.5625  ,45.858  ,0
5515  ,1.5       ,2.6335  ,46.291  ,0
5516  ,1.5       ,2.6253  ,46.163  ,0
5517  ,1.5       ,2.6041  ,46.061  ,0
5518  ,1.5       ,2.5796  ,45.98  ,0
5519  ,1.5       ,2.618  ,45.92  ,0
5520  ,1.5       ,2.6635  ,46.083  ,0
5521  ,1.5       ,2.625  ,45.858  ,0
5522  ,1.5       ,2.6493  ,45.92  ,0
5523  ,1.6       ,2.9126  ,46.799  ,0
5524  ,1.5       ,2.647  ,46.737  ,0
5525  ,1.5       ,2.6788  ,46.551  ,0
5526  ,1.5       ,2.6829  ,46.398  ,0
5527  ,1.5       ,2.7341  ,46.291  ,0
5528  ,1.5       ,2.7794  ,46.552  ,0
5529  ,1.5       ,2.6805  ,45.92  ,0
5530  ,1.5       ,2.6875  ,45.858  ,0
5531  ,1.6       ,2.9151  ,47.029  ,0
5532  ,1.5       ,2.5916  ,47.179  ,0
5533  ,1.5       ,2.6495  ,46.967  ,0
5534  ,1.5       ,2.673  ,47.41  ,0
5535  ,1.5       ,2.7778  ,46.935  ,0
5536  ,1.5       ,2.744  ,46.194  ,0
5537  ,1.6       ,2.7934  ,46.301  ,0
5538  ,1.5       ,2.7333  ,46.094  ,0
5539  ,1.5       ,2.7121  ,45.992  ,0
5540  ,1.6       ,2.7503  ,45.931  ,0
5541  ,1.6       ,2.7926  ,46.103  ,0
5542  ,1.6       ,2.75  ,45.858  ,0
5543  ,1.6       ,2.7816  ,45.931  ,0
5544  ,1.6       ,2.8128  ,45.931  ,0
5545  ,1.6       ,2.8125  ,45.858  ,0
5546  ,1.6       ,2.8544  ,46.354  ,0
5547  ,1.6       ,2.8643  ,46.257  ,0
5548  ,1.6       ,2.8436  ,46.168  ,0
5549  ,1.6       ,2.8328  ,46.068  ,0
5550  ,1.7       ,2.9046  ,46.221  ,0
5551  ,1.6       ,2.8507  ,45.991  ,0
5552  ,1.7       ,2.8817  ,45.918  ,0
5553  ,1.7       ,2.9017  ,46.055  ,0
5554  ,1.7       ,2.875  ,45.858  ,0
5555  ,1.7       ,2.9129  ,45.918  ,0
5556  ,1.6       ,3.1533  ,47.553  ,0
5557  ,1.5       ,2.8284  ,47.928  ,0
5558  ,1.5       ,3.1048  ,47.869  ,0
5559  ,1.5       ,2.7822  ,47.657  ,0
5560  ,1.5       ,2.8896  ,47.411  ,0
5561  ,1.8       ,3.1567  ,46.555  ,0
5562  ,1.7       ,3.0305  ,46.736  ,0
5563  ,1.6       ,2.8932  ,46.642  ,0
5564  ,1.6       ,2.8972  ,46.489  ,0
5565  ,1.7       ,2.9682  ,46.445  ,0
5566  ,1.7       ,2.9442  ,45.918  ,0
5567  ,1.7       ,2.9375  ,45.858  ,0
5568  ,1.7       ,2.9655  ,46.234  ,0
5569  ,1.7       ,2.9447  ,46.145  ,0
5570  ,1.7       ,2.9626  ,46.068  ,0
5571  ,1.8       ,2.9845  ,45.979  ,0
5572  ,1.8       ,3.0091  ,45.918  ,0
5573  ,1.8       ,3.0275  ,46.069  ,0
5574  ,1.8       ,3  ,45.858  ,0
5575  ,1.8       ,3.0404  ,45.918  ,0
5576  ,1.6       ,3.1147  ,47.049  ,0
5577  ,1.7       ,3.2675  ,47.067  ,0
5578  ,1.7       ,3.2865  ,47.145  ,0
5579  ,1.6       ,3.2436  ,47.326  ,0
5580  ,1.6       ,2.9799  ,47.184  ,0
5581  ,1.6       ,3.0891  ,47.431  ,0
5582  ,1.9       ,3.2054  ,46.444  ,0
5583  ,1.7       ,3.0168  ,46.334  ,0
5584  ,1.7       ,3.0597  ,46.469  ,0
5585  ,1.8       ,3.057  ,46.258  ,0
5586  ,1.9       ,3.0716  ,45.918  ,0
5587  ,1.9       ,3.0625  ,45.858  ,0
5588  ,1.8       ,3.0792  ,46.159  ,0
5589  ,1.9       ,3.1011  ,46.069  ,0
5590  ,1.9       ,3.1305  ,46.259  ,0
5591  ,1.9       ,3.1142  ,45.977  ,0
5592  ,1.9       ,3.1364  ,45.916  ,0
5593  ,2.0       ,3.1659  ,46.067  ,0
5594  ,1.9       ,3.125  ,45.858  ,0
5595  ,2.0       ,3.1676  ,45.916  ,0
5596  ,1.9       ,3.2657  ,46.636  ,0
5597  ,1.7       ,3.1395  ,46.818  ,0
5598  ,1.8       ,3.2923  ,46.836  ,0
5599  ,1.7       ,3.12  ,46.661  ,0
5600  ,2.0       ,3.1989  ,45.916  ,0
5601  ,2.0       ,3.1875  ,45.858  ,0
5602  ,2.2       ,3.3619  ,46.275  ,0
5603  ,2.0       ,3.2976  ,46.423  ,0
5604  ,1.9       ,3.2005  ,46.337  ,0
5605  ,2.0       ,3.2227  ,46.238  ,0
5606  ,2.2       ,3.3606  ,46.184  ,0
5607  ,2.0       ,3.2215  ,46.147  ,0
5608  ,2.1       ,3.2346  ,46.055  ,0
5609  ,2.1       ,3.2915  ,46.226  ,0
5610  ,2.1       ,3.2419  ,45.972  ,0
5611  ,2.1       ,3.2618  ,45.913  ,0
5612  ,2.2       ,3.2975  ,46.052  ,0
5613  ,2.1       ,3.25  ,45.858  ,0
5614  ,2.2       ,3.293  ,45.913  ,0
5615  ,1.6       ,3.319  ,47.572  ,0
5616  ,1.6       ,3.4643  ,47.572  ,0
5617  ,1.5       ,3.4578  ,47.733  ,0
5618  ,1.5       ,3.2705  ,47.888  ,0
5619  ,1.5       ,3.1646  ,47.677  ,0
5620  ,2.2       ,3.3243  ,45.913  ,0
5621  ,2.2       ,3.3125  ,45.858  ,0
5622  ,1.7       ,3.4256  ,47.155  ,0
5623  ,1.8       ,3.5274  ,47.119  ,0
5624  ,1.6       ,3.3827  ,47.336  ,0
5625  ,1.7       ,3.5279  ,47.335  ,0
5626  ,1.7       ,3.3185  ,47.214  ,0
5627  ,2.3       ,3.4131  ,46.167  ,0
5628  ,2.2       ,3.3427  ,46.117  ,0
5629  ,2.2       ,3.35  ,46.035  ,0
5630  ,2.6       ,3.5068  ,46.015  ,0
5631  ,2.3       ,3.374  ,45.973  ,0
5632  ,2.4       ,3.3934  ,45.917  ,0
5633  ,2.4       ,3.4192  ,46.039  ,0
5634  ,2.3       ,3.375  ,45.858  ,0
5635  ,2.4       ,3.4247  ,45.917  ,0
5636  ,2.0       ,3.3919  ,46.622  ,0
5637  ,2.1       ,3.5028  ,46.636  ,0
5638  ,2.2       ,3.5849  ,46.663  ,0
5639  ,1.9       ,3.4185  ,46.822  ,0
5640  ,2.0       ,3.5345  ,46.782  ,0
5641  ,1.9       ,3.3552  ,46.728  ,0
5642  ,2.3       ,3.4625  ,46.32  ,0
5643  ,2.5       ,3.5468  ,46.336  ,0
5644  ,2.1       ,3.3982  ,46.468  ,0
5645  ,2.4       ,3.5818  ,46.444  ,0
5646  ,2.3       ,3.5091  ,46.482  ,0
5647  ,2.2       ,3.3934  ,46.362  ,0
5648  ,2.5       ,3.4559  ,45.917  ,0
5649  ,2.5       ,3.4375  ,45.858  ,0
5650  ,2.6       ,3.5427  ,46.096  ,0
5651  ,2.4       ,3.473  ,46.186  ,0
5652  ,2.6       ,3.5573  ,46.202  ,0
5653  ,2.4       ,3.4551  ,46.12  ,0
5654  ,2.5       ,3.4791  ,46.058  ,0
5655  ,2.7       ,3.5659  ,46.002  ,0
5656  ,2.9       ,3.6224  ,45.999  ,0
5657  ,2.6       ,3.5022  ,45.964  ,0
5658  ,2.6       ,3.515  ,45.904  ,0
5659  ,2.6       ,3.5  ,45.858  ,0
5660  ,2.7       ,3.5463  ,45.904  ,0
5661  ,3.0       ,3.6327  ,45.892  ,0
5662  ,2.8       ,3.5775  ,45.904  ,0
5663  ,2.8       ,3.5625  ,45.858  ,0
5664  ,2.7       ,3.6313  ,46.319  ,0
5665  ,2.8       ,3.6943  ,46.332  ,0
5666  ,2.8       ,3.7015  ,46.362  ,0
5667  ,2.8       ,3.7095  ,46.391  ,0
5668  ,2.6       ,3.6663  ,46.427  ,0
5669  ,2.5       ,3.5785  ,46.39  ,0
5670  ,2.8       ,3.6114  ,46.098  ,0
5671  ,3.0       ,3.6679  ,46.096  ,0
5672  ,3.0       ,3.6783  ,46.125  ,0
5673  ,2.9       ,3.6825  ,46.187  ,0
5674  ,2.8       ,3.626  ,46.204  ,0
5675  ,2.7       ,3.5837  ,46.141  ,0
5676  ,3.1       ,3.664  ,45.953  ,0
5677  ,3.1       ,3.6699  ,46.014  ,0
5678  ,2.9       ,3.6088  ,45.965  ,0
5679  ,3.0       ,3.625  ,45.919  ,0
5680  ,3.1       ,3.664  ,45.892  ,0
5681  ,3.0       ,3.625  ,45.858  ,0
5682  ,1.5       ,3.7618  ,47.6  ,0
5683  ,1.5       ,3.8405  ,47.535  ,0
5684  ,1.5       ,3.6978  ,47.701  ,0
5685  ,1.5       ,3.908  ,47.601  ,0
5686  ,1.5       ,3.8432  ,47.744  ,0
5687  ,1.8       ,3.6564  ,47.097  ,0
5688  ,1.9       ,3.7871  ,47.092  ,0
5689  ,1.7       ,3.6569  ,47.313  ,0
5690  ,1.8       ,3.8279  ,47.154  ,0
5691  ,1.7       ,3.7726  ,47.231  ,0
5692  ,1.7       ,3.5866  ,47.201  ,0
5693  ,2.3       ,3.6986  ,46.673  ,0
5694  ,2.4       ,3.7705  ,46.691  ,0
5695  ,2.4       ,3.7826  ,46.723  ,0
5696  ,2.1       ,3.6482  ,46.793  ,0
5697  ,2.2       ,3.7522  ,46.795  ,0
5698  ,2.1       ,3.595  ,46.725  ,0
5699  ,3.2       ,3.7035  ,45.844  ,0
5700  ,3.3       ,3.7124  ,45.908  ,0
5701  ,3.2       ,3.7047  ,45.874  ,0
5702  ,3.4       ,3.7517  ,45.86  ,0
5703  ,3.3       ,3.7144  ,45.938  ,0
5704  ,3.2       ,3.7066  ,45.965  ,0
5705  ,3.4       ,3.7549  ,45.92  ,0
5706  ,3.2       ,3.723  ,46.029  ,0
5707  ,3.2       ,3.7093  ,45.995  ,0
5708  ,3.4       ,3.7595  ,45.979  ,0
5709  ,3.2       ,3.7265  ,46.058  ,0
5710  ,3.4       ,3.7658  ,46.038  ,0
5711  ,3.2       ,3.7307  ,46.087  ,0
5712  ,3.2       ,3.7411  ,46.117  ,0
5713  ,3.2       ,3.7454  ,46.178  ,0
5714  ,3.1       ,3.7152  ,46.135  ,0
5715  ,3.4       ,3.7735  ,46.097  ,0
5716  ,3.1       ,3.7504  ,46.208  ,0
5717  ,3.3       ,3.7829  ,46.156  ,0
5718  ,3.1       ,3.7563  ,46.237  ,0
5719  ,3.1       ,3.7627  ,46.267  ,0
5720  ,3.3       ,3.7938  ,46.214  ,0
5721  ,3.1       ,3.7693  ,46.295  ,0
5722  ,3.1       ,3.7765  ,46.325  ,0
5723  ,3.3       ,3.8062  ,46.272  ,0
5724  ,3.0       ,3.7839  ,46.354  ,0
5725  ,3.0       ,3.7919  ,46.384  ,0
5726  ,3.2       ,3.8202  ,46.329  ,0
5727  ,3.0       ,3.8001  ,46.412  ,0
5728  ,3.0       ,3.8088  ,46.442  ,0
5729  ,3.1       ,3.8358  ,46.387  ,0
5730  ,2.9       ,3.8178  ,46.47  ,0
5731  ,2.9       ,3.8273  ,46.5  ,0
5732  ,3.1       ,3.8529  ,46.443  ,0
5733  ,2.9       ,3.8371  ,46.528  ,0
5734  ,2.8       ,3.8468  ,46.557  ,0
5735  ,3.0       ,3.8716  ,46.5  ,0
5736  ,2.8       ,3.8573  ,46.585  ,0
5737  ,2.8       ,3.8674  ,46.616  ,0
5738  ,3.0       ,3.8918  ,46.556  ,0
5739  ,2.7       ,3.8794  ,46.646  ,0
5740  ,2.7       ,3.8915  ,46.677  ,0
5741  ,2.9       ,3.9141  ,46.614  ,0
5742  ,2.7       ,3.9045  ,46.707  ,0
5743  ,2.6       ,3.9185  ,46.737  ,0
5744  ,2.8       ,3.9393  ,46.674  ,0
5745  ,2.6       ,3.9323  ,46.767  ,0
5746  ,2.5       ,3.9472  ,46.797  ,0
5747  ,2.7       ,3.9662  ,46.733  ,0
5748  ,2.5       ,3.9617  ,46.826  ,0
5749  ,2.5       ,3.9774  ,46.855  ,0
5750  ,2.6       ,3.9945  ,46.791  ,0
5751  ,2.4       ,3.9928  ,46.883  ,0
5752  ,2.4       ,4.0092  ,46.913  ,0
5753  ,2.5       ,4.0245  ,46.848  ,0
5754  ,2.3       ,4.0254  ,46.94  ,0
5755  ,2.3       ,4.0426  ,46.969  ,0
5756  ,2.5       ,4.0559  ,46.904  ,0
5757  ,2.2       ,4.0595  ,46.996  ,0
5758  ,2.2       ,4.0775  ,47.024  ,0
5759  ,2.4       ,4.089  ,46.959  ,0
5760  ,2.1       ,4.0952  ,47.051  ,0
5761  ,2.1       ,4.114  ,47.078  ,0
5762  ,2.3       ,4.1236  ,47.013  ,0
5763  ,2.0       ,4.1324  ,47.104  ,0
5764  ,2.0       ,4.152  ,47.131  ,0
5765  ,2.1       ,4.1597  ,47.066  ,0
5766  ,1.9       ,4.1712  ,47.157  ,0
5767  ,1.9       ,4.1916  ,47.184  ,0
5768  ,2.0       ,4.1974  ,47.118  ,0
5769  ,1.8       ,4.2116  ,47.209  ,0
5770  ,1.8       ,4.2327  ,47.235  ,0
5771  ,1.9       ,4.2366  ,47.168  ,0
5772  ,1.7       ,4.2535  ,47.259  ,0
5773  ,1.7       ,4.2753  ,47.285  ,0
5774  ,1.8       ,4.2774  ,47.218  ,0
5775  ,1.6       ,4.2969  ,47.309  ,0
5776  ,1.6       ,4.3196  ,47.334  ,0
5777  ,1.7       ,4.3197  ,47.267  ,0
5778  ,1.5       ,4.3419  ,47.358  ,0
5779  ,1.5       ,4.3654  ,47.382  ,0
5780  ,1.6       ,4.3636  ,47.315  ,0
5781  ,1.4       ,4.3885  ,47.405  ,0
5782  ,1.4       ,4.4128  ,47.429  ,0
5783  ,1.5       ,4.409  ,47.361  ,0
5784  ,1.3       ,4.4365  ,47.451  ,0
5785  ,1.3       ,4.4615  ,47.474  ,0
5786  ,1.4       ,4.4558  ,47.407  ,0
5787  ,1.2       ,4.4856  ,47.495  ,0
5788  ,1.2       ,4.5112  ,47.517  ,0
5789  ,1.3       ,4.5037  ,47.451  ,0
5790  ,1.1       ,4.5358  ,47.538  ,0
5791  ,1.1       ,4.5619  ,47.559  ,0
5792  ,1.2       ,4.5525  ,47.493  ,0
5793  ,1.0       ,4.587  ,47.579  ,0
5794  ,1.0       ,4.6136  ,47.599  ,0
5795  ,1.1       ,4.6024  ,47.534  ,0
5796  ,1.0       ,4.6393  ,47.619  ,0
5797  ,0.9       ,4.6663  ,47.638  ,0
5798  ,1.0       ,4.6532  ,47.573  ,0
5799  ,0.9       ,4.6925  ,47.657  ,0
5800  ,0.8       ,4.72  ,47.675  ,0
5801  ,0.9       ,4.7051  ,47.611  ,0
5802  ,0.8       ,4.7467  ,47.693  ,0
5803  ,0.7       ,4.7748  ,47.711  ,0
5804  ,0.8       ,4.758  ,47.647  ,0
5805  ,0.7       ,4.802  ,47.728  ,0
5806  ,0.7       ,4.8305  ,47.745  ,0
5807  ,0.7       ,4.8119  ,47.682  ,0
5808  ,0.6       ,4.8582  ,47.761  ,0
5809  ,0.6       ,4.8873  ,47.778  ,0
5810  ,0.6       ,4.8668  ,47.715  ,0
5811  ,0.6       ,4.9155  ,47.793  ,0
5812  ,0.5       ,4.9451  ,47.809  ,0
5813  ,0.5       ,4.9228  ,47.746  ,0
5814  ,0.5       ,4.9738  ,47.823  ,0
5815  ,0.5       ,5.0039  ,47.838  ,0
5816  ,0.5       ,4.9797  ,47.776  ,0
5817  ,0.4       ,5.0331  ,47.852  ,0
5818  ,0.4       ,5.0638  ,47.866  ,0
5819  ,0.4       ,5.0377  ,47.804  ,0
5820  ,0.4       ,5.0935  ,47.879  ,0
5821  ,0.4       ,5.1248  ,47.891  ,0
5822  ,0.4       ,5.0966  ,47.831  ,0
5823  ,0.3       ,5.1544  ,47.903  ,0
5824  ,0.3       ,5.1849  ,47.913  ,0
5825  ,0.3       ,5.1566  ,47.856  ,0
5826  ,0.3       ,5.2131  ,47.924  ,0
5827  ,0.3       ,5.2426  ,47.933  ,0
5828  ,0.3       ,5.2139  ,47.879  ,0
5829  ,0.3       ,5.2709  ,47.943  ,0
5830  ,0.3       ,5.3003  ,47.953  ,0
5831  ,0.2       ,5.2703  ,47.899  ,0
5832  ,0.2       ,5.3287  ,47.962  ,0
5833  ,0.2       ,5.3583  ,47.97  ,0
5834  ,0.2       ,5.327  ,47.917  ,0
5835  ,0.2       ,5.3869  ,47.978  ,0
5836  ,0.2       ,5.4166  ,47.986  ,0
5837  ,0.2       ,5.384  ,47.935  ,0
5838  ,0.2       ,5.4453  ,47.994  ,0
5839  ,0.2       ,5.4752  ,48.001  ,0
5840  ,0.2       ,5.4413  ,47.95  ,0
5841  ,0.2       ,5.5041  ,48.008  ,0
5842  ,0.2       ,5.5341  ,48.014  ,0
5843  ,0.2       ,5.4989  ,47.964  ,0
5844  ,0.2       ,5.5631  ,48.02  ,0
5845  ,0.2       ,5.5933  ,48.026  ,0
5846  ,0.2       ,5.5567  ,47.977  ,0
5847  ,0.2       ,5.6224  ,48.031  ,0
5848  ,0.2       ,5.6527  ,48.035  ,0
5849  ,0.2       ,5.6149  ,47.987  ,0
5850  ,0.2       ,5.682  ,48.04  ,0
5851  ,0.2       ,5.6733  ,47.997  ,0
5852  ,0.2       ,5.7115  ,48.043  ,0
5853  ,0.2       ,5.7725  ,48.051  ,0
5854  ,0.2       ,5.7321  ,48.005  ,0
5855  ,0.2       ,5.8021  ,48.053  ,0
5856  ,0.2       ,5.8468  ,48.07  ,0
5857  ,0.2       ,5.7911  ,48.011  ,0
5858  ,0.2       ,5.8766  ,48.072  ,0
5859  ,0.2       ,5.8504  ,48.015  ,0
5860  ,0.2       ,5.9064  ,48.074  ,0
5861  ,0.2       ,5.91  ,48.019  ,0
5862  ,0.2       ,5.9699  ,48.02  ,0
5863  ,0.2       ,5.9365  ,48.105  ,0
5864  ,0.2       ,5.97  ,48.051  ,0
5865  ,0.2       ,6  ,48.052  ,0
5866  ,0.2       ,5.9511  ,48.195  ,0
5867  ,0.2       ,5.9365  ,48.15  ,0
5868  ,0.2       ,6  ,48.127  ,0
5869  ,0.2       ,5.9479  ,48.339  ,0
5870  ,0.2       ,5.9511  ,48.257  ,0
5871  ,0.2       ,6  ,48.233  ,0
5872  ,0.2       ,5.9434  ,48.54  ,0
5873  ,0.2       ,5.9479  ,48.426  ,0
5874  ,0.2       ,6  ,48.382  ,0
5875  ,0.3       ,5.8954  ,48.818  ,0
5876  ,0.3       ,5.9434  ,48.661  ,0
5877  ,0.2       ,6  ,48.589  ,0
5878  ,0.4       ,5.8333  ,49.206  ,0
5879  ,0.3       ,5.8954  ,48.988  ,0
5880  ,0.3       ,6  ,48.88  ,0
5881  ,0.5       ,5.8102  ,49.694  ,0
5882  ,0.4       ,5.8333  ,49.443  ,0
5883  ,0.3       ,6  ,49.286  ,0
5884  ,0.6       ,5.75  ,50.281  ,0
5885  ,0.5       ,5.8102  ,49.939  ,0
5886  ,0.5       ,6  ,49.768  ,0
5887  ,0.6       ,5.75  ,50.525  ,0
5888  ,0.5       ,6  ,50.257  ,0
5889  ,0.7       ,5.75  ,50.77  ,0
5890  ,0.7       ,5.75  ,51.021  ,0
5891  ,0.6       ,6  ,50.746  ,0
5892  ,0.7       ,5.75  ,51.266  ,0
5893  ,0.7       ,5.75  ,51.517  ,0
5894  ,0.7       ,6  ,51.235  ,0
5895  ,0.8       ,5.75  ,51.762  ,0
5896  ,0.8       ,5.75  ,52.013  ,0
5897  ,0.7       ,6  ,51.724  ,0
5898  ,0.8       ,5.75  ,52.257  ,0
5899  ,0.8       ,5.75  ,52.509  ,0
5900  ,0.8       ,6  ,52.213  ,0
5901  ,0.8       ,5.75  ,52.753  ,0
5902  ,0.8       ,5.75  ,53.005  ,0
5903  ,0.8       ,6  ,52.702  ,0
5904  ,0.8       ,5.75  ,53.249  ,0
5905  ,0.8       ,5.75  ,53.501  ,0
5906  ,0.8       ,6  ,53.191  ,0
5907  ,0.8       ,5.75  ,53.745  ,0
5908  ,0.9       ,5.75  ,53.997  ,0
5909  ,0.8       ,6  ,53.68  ,0
5910  ,0.9       ,5.75  ,54.241  ,0
5911  ,0.9       ,5.75  ,54.493  ,0
5912  ,0.9       ,6  ,54.169  ,0
5913  ,0.9       ,5.75  ,54.737  ,0
5914  ,0.9       ,5.75  ,54.989  ,0
5915  ,0.9       ,6  ,54.658  ,0
5916  ,0.9       ,5.75  ,55.233  ,0
5917  ,0.9       ,5.75  ,55.485  ,0
5918  ,0.9       ,6  ,55.147  ,0
5919  ,0.9       ,5.75  ,55.729  ,0
5920  ,0.9       ,5.75  ,55.981  ,0
5921  ,0.9       ,6  ,55.636  ,0
5922  ,0.9       ,5.75  ,56.225  ,0
5923  ,0.9       ,5.75  ,56.477  ,0
5924  ,0.9       ,6  ,56.125  ,0
5925  ,0.9       ,5.75  ,56.721  ,0
5926  ,0.9       ,5.75  ,56.973  ,0
5927  ,0.9       ,6  ,56.614  ,0
5928  ,0.9       ,5.75  ,57.217  ,0
5929  ,0.9       ,5.75  ,57.469  ,0
5930  ,0.9       ,6  ,57.103  ,0
5931  ,0.9       ,5.75  ,57.713  ,0
5932  ,0.9       ,5.75  ,57.965  ,0
5933  ,0.9       ,6  ,57.592  ,0
5934  ,0.9       ,5.75  ,58.209  ,0
5935  ,0.9       ,5.75  ,58.461  ,0
5936  ,0.9       ,6  ,58.081  ,0
5937  ,0.9       ,5.75  ,58.705  ,0
5938  ,0.9       ,5.75  ,58.957  ,0
5939  ,0.9       ,6  ,58.57  ,0
5940  ,0.9       ,5.75  ,59.201  ,0
5941  ,0.9       ,5.75  ,59.453  ,0
5942  ,0.9       ,6  ,59.059  ,0
5943  ,0.9       ,5.75  ,59.697  ,0
5944  ,0.9       ,5.75  ,59.949  ,0
5945  ,0.9       ,6  ,59.548  ,0
5946  ,0.9       ,5.75  ,60.193  ,0
5947  ,0.9       ,5.75  ,60.445  ,0
5948  ,0.9       ,6  ,60.037  ,0
5949  ,0.9       ,5.75  ,60.689  ,0
5950  ,0.9       ,5.7513  ,60.941  ,0
5951  ,0.9       ,6  ,60.526  ,0
5952  ,0.9       ,5.7534  ,61.192  ,0
5953  ,0.9       ,5.7579  ,61.443  ,0
5954  ,0.9       ,6.001  ,61.021  ,0
5955  ,0.9       ,5.7642  ,61.694  ,0
5956  ,0.9       ,5.7725  ,61.945  ,0
5957  ,0.9       ,6.0094  ,61.523  ,0
5958  ,0.9       ,5.783  ,62.195  ,0
5959  ,0.9       ,5.7952  ,62.447  ,0
5960  ,0.9       ,6.026  ,62.023  ,0
5961  ,0.9       ,5.8098  ,62.696  ,0
5962  ,0.9       ,5.826  ,62.948  ,0
5963  ,0.9       ,6.051  ,62.523  ,0
5964  ,0.9       ,5.8447  ,63.197  ,0
5965  ,0.9       ,5.8648  ,63.449  ,0
5966  ,0.9       ,6.0844  ,63.022  ,0
5967  ,0.9       ,5.8877  ,63.698  ,0
5968  ,0.9       ,5.9117  ,63.949  ,0
5969  ,0.9       ,6.1261  ,63.521  ,0
5970  ,0.9       ,5.9388  ,64.198  ,0
5971  ,0.9       ,5.9668  ,64.449  ,0
5972  ,0.9       ,6.1761  ,64.018  ,0
5973  ,0.8       ,5.998  ,64.697  ,0
5974  ,0.8       ,6.0502  ,64.949  ,0
5975  ,0.9       ,6.2344  ,64.515  ,0
5976  ,0.8       ,6.0856  ,65.197  ,0
5977  ,0.8       ,6.1218  ,65.448  ,0
5978  ,0.8       ,6.3011  ,65.011  ,0
5979  ,0.8       ,6.1614  ,65.696  ,0
5980  ,0.8       ,6.2016  ,65.947  ,0
5981  ,0.8       ,6.3761  ,65.506  ,0
5982  ,0.8       ,6.2453  ,66.194  ,0
5983  ,0.8       ,6.2896  ,66.446  ,0
5984  ,0.8       ,6.4594  ,66.001  ,0
5985  ,0.8       ,6.3375  ,66.692  ,0
5986  ,0.7       ,6.3858  ,66.943  ,0
5987  ,0.8       ,6.5511  ,66.494  ,0
5988  ,0.7       ,6.4377  ,67.189  ,0
5989  ,0.7       ,6.4902  ,67.44  ,0
5990  ,0.8       ,6.6508  ,66.986  ,0
5991  ,0.7       ,6.5461  ,67.684  ,0
5992  ,0.7       ,6.6219  ,67.936  ,0
5993  ,0.7       ,6.7586  ,67.475  ,0
5994  ,0.7       ,6.6818  ,68.178  ,0
5995  ,0.7       ,6.7432  ,68.43  ,0
5996  ,0.7       ,6.8745  ,67.962  ,0
5997  ,0.6       ,6.8729  ,68.923  ,0
5998  ,0.6       ,6.8071  ,68.672  ,0
5999  ,0.7       ,6.9984  ,68.446  ,0
6000  ,0.6       ,7.0286  ,69.415  ,0
6001  ,0.6       ,6.9408  ,69.164  ,0
6002  ,0.6       ,7.1303  ,68.929  ,0
6003  ,0.5       ,7.1758  ,69.906  ,0
6004  ,0.6       ,7.1006  ,69.655  ,0
6005  ,0.6       ,7.2704  ,69.409  ,0
6006  ,0.5       ,7.3317  ,70.396  ,0
6007  ,0.5       ,7.2519  ,70.144  ,0
6008  ,0.5       ,7.4184  ,69.886  ,0
6009  ,0.4       ,7.5127  ,70.885  ,0
6010  ,0.5       ,7.4118  ,70.633  ,0
6011  ,0.5       ,7.5745  ,70.362  ,0
6012  ,0.4       ,7.6619  ,71.372  ,0
6013  ,0.4       ,7.5968  ,71.121  ,0
6014  ,0.4       ,7.7387  ,70.835  ,0
6015  ,0.3       ,7.75  ,71.607  ,0
6016  ,0.3       ,7.9109  ,71.306  ,0
6017  ,0.4       ,7.75  ,72.108  ,0
6018  ,0.4       ,7.75  ,71.857  ,0
6019  ,0.3       ,8  ,71.791  ,0
6020  ,0.4       ,7.75  ,72.61  ,0
6021  ,0.4       ,7.75  ,72.358  ,0
6022  ,0.4       ,8  ,72.291  ,0
6023  ,0.4       ,7.75  ,73.111  ,0
6024  ,0.4       ,7.75  ,72.86  ,0
6025  ,0.4       ,8  ,72.791  ,0
6026  ,0.5       ,7.75  ,73.613  ,0
6027  ,0.4       ,7.75  ,73.361  ,0
6028  ,0.4       ,8  ,73.291  ,0
6029  ,0.5       ,7.75  ,74.114  ,0
6030  ,0.5       ,7.75  ,73.863  ,0
6031  ,0.5       ,8  ,73.791  ,0
6032  ,0.5       ,7.75  ,74.616  ,0
6033  ,0.5       ,7.75  ,74.364  ,0
6034  ,0.5       ,8  ,74.291  ,0
6035  ,0.5       ,7.75  ,75.117  ,0
6036  ,0.5       ,7.75  ,74.866  ,0
6037  ,0.5       ,8  ,74.791  ,0
6038  ,0.5       ,7.75  ,75.619  ,0
6039  ,0.5       ,7.75  ,75.367  ,0
6040  ,0.5       ,8  ,75.291  ,0
6041  ,0.5       ,7.75  ,76.12  ,0
6042  ,0.5       ,7.75  ,75.869  ,0
6043  ,0.5       ,8  ,75.791  ,0
6044  ,0.5       ,7.75  ,76.622  ,0
6045  ,0.5       ,7.75  ,76.37  ,0
6046  ,0.5       ,8  ,76.291  ,0
6047  ,0.5       ,7.75  ,77.123  ,0
6048  ,0.5       ,7.75  ,76.872  ,0
6049  ,0.5       ,8  ,76.791  ,0
6050  ,0.5       ,7.75  ,77.625  ,0
6051  ,0.5       ,7.75  ,77.373  ,0
6052  ,0.5       ,8  ,77.291  ,0
6053  ,0.5       ,7.75  ,78.126  ,0
6054  ,0.5       ,7.75  ,77.875  ,0
6055  ,0.5       ,8  ,77.791  ,0
6056  ,0.5       ,7.75  ,78.628  ,0
6057  ,0.5       ,7.75  ,78.376  ,0
6058  ,0.5       ,8  ,78.291  ,0
6059  ,0.5       ,7.75  ,79.129  ,0
6060  ,0.5       ,7.75  ,78.878  ,0
6061  ,0.5       ,8  ,78.791  ,0
6062  ,0.5       ,7.75  ,79.631  ,0
6063  ,0.5       ,7.75  ,79.379  ,0
6064  ,0.5       ,8  ,79.291  ,0
6065  ,0.5       ,7.75  ,80.132  ,0
6066  ,0.5       ,7.75  ,79.881  ,0
6067  ,0.5       ,8  ,79.791  ,0
6068  ,0.5       ,7.75  ,80.634  ,0
6069  ,0.5       ,7.75  ,80.382  ,0
6070  ,0.5       ,8  ,80.291  ,0
6071  ,0.5       ,7.75  ,81.135  ,0
6072  ,0.5       ,7.75  ,80.884  ,0
6073  ,0.5       ,8  ,80.791  ,0
6074  ,0.5       ,7.75  ,81.637  ,0
6075  ,0.5       ,7.75  ,81.385  ,0
6076  ,0.5       ,8  ,81.291  ,0
6077  ,0.5       ,7.75  ,82.138  ,0
6078  ,0.5       ,7.75  ,81.887  ,0
6079  ,0.5       ,8  ,81.791  ,0
6080  ,0.5       ,7.75  ,82.64  ,0
6081  ,0.5       ,7.75  ,82.388  ,0
6082  ,0.5       ,8  ,82.291  ,0
6083  ,0.5       ,7.75  ,83.141  ,0
6084  ,0.5       ,7.75  ,82.89  ,0
6085  ,0.5       ,8  ,82.791  ,0
6086  ,0.5       ,7.75  ,83.643  ,0
6087  ,0.5       ,7.75  ,83.391  ,0
6088  ,0.5       ,8  ,83.291  ,0
6089  ,0.5       ,7.75  ,84.144  ,0
6090  ,0.5       ,7.75  ,83.893  ,0
6091  ,0.5       ,8  ,83.791  ,0
6092  ,0.5       ,7.75  ,84.646  ,0
6093  ,0.5       ,7.75  ,84.394  ,0
6094  ,0.5       ,8  ,84.291  ,0
6095  ,0.5       ,7.75  ,85.147  ,0
6096  ,0.5       ,7.75  ,84.896  ,0
6097  ,0.5       ,8  ,84.791  ,0
6098  ,0.5       ,7.75  ,85.649  ,0
6099  ,0.5       ,7.75  ,85.397  ,0
6100  ,0.5       ,8  ,85.291  ,0
6101  ,0.5       ,7.75  ,86.15  ,0
6102  ,0.5       ,7.75  ,85.899  ,0
6103  ,0.5       ,8  ,85.791  ,0
6104  ,0.5       ,7.75  ,86.652  ,0
6105  ,0.5       ,7.75  ,86.4  ,0
6106  ,0.5       ,8  ,86.291  ,0
6107  ,0.5       ,7.75  ,87.153  ,0
6108  ,0.5       ,7.75  ,86.902  ,0
6109  ,0.5       ,8  ,86.791  ,0
6110  ,0.5       ,7.75  ,87.655  ,0
6111  ,0.5       ,7.75  ,87.403  ,0
6112  ,0.5       ,8  ,87.291  ,0
6113  ,0.5       ,7.75  ,88.156  ,0
6114  ,0.5       ,7.75  ,87.905  ,0
6115  ,0.5       ,8  ,87.791  ,0
6116  ,0.5       ,7.75  ,88.657  ,0
6117  ,0.5       ,7.75  ,88.406  ,0
6118  ,0.5       ,8  ,88.291  ,0
6119  ,0.5       ,7.75  ,89.159  ,0
6120  ,0.5       ,7.75  ,88.907  ,0
6121  ,0.5       ,8  ,88.791  ,0
6122  ,0.5       ,7.75  ,89.66  ,0
6123  ,0.5       ,7.75  ,89.409  ,0
6124  ,0.5       ,8  ,89.291  ,0
6125  ,0.5       ,7.75  ,90.162  ,0
6126  ,0.5       ,7.75  ,89.91  ,0
6127  ,0.5       ,8  ,89.791  ,0
6128  ,0.5       ,7.75  ,90.663  ,0
6129  ,0.5       ,7.75  ,90.412  ,0
6130  ,0.5       ,8  ,90.291  ,0
6131  ,0.5       ,7.75  ,90.913  ,0
6132  ,0.5       ,8  ,90.791  ,0
6133  ,0.5       ,8  ,91.291  ,0
6134  ,0.5       ,7.5  ,91.163  ,0
6135  ,0.5       ,7.75  ,91.291  ,0
6136  ,0.5       ,7.75  ,91.541  ,0
6137  ,0.5       ,7  ,91.163  ,0
6138  ,0.5       ,7.25  ,91.163  ,0
6139  ,0.5       ,7.25  ,91.541  ,0
6140  ,0.5       ,6.5  ,91.163  ,0
6141  ,0.5       ,6.75  ,91.163  ,0
6142  ,0.5       ,6.75  ,91.541  ,0
6143  ,0.5       ,6  ,91.163  ,0
6144  ,0.5       ,6.25  ,91.163  ,0
6145  ,0.5       ,6.25  ,91.541  ,0
6146  ,0.5       ,5.5  ,91.163  ,0
6147  ,0.5       ,5.75  ,91.163  ,0
6148  ,0.5       ,5.75  ,91.541  ,0
6149  ,0.5       ,5  ,91.163  ,0
6150  ,0.5       ,5.25  ,91.163  ,0
6151  ,0.5       ,5.25  ,91.541  ,0
6152  ,0.5       ,4.5  ,91.163  ,0
6153  ,0.5       ,4.75  ,91.163  ,0
6154  ,0.5       ,4.75  ,91.541  ,0
6155  ,0.5       ,3.75  ,91.163  ,0
6156  ,0.5       ,4.0177  ,91.095  ,0
6157  ,0.5       ,4.25  ,91.163  ,0
6158  ,0.5       ,4.25  ,91.541  ,0
6159  ,0.5       ,3.5  ,91.163  ,0
6160  ,0.5       ,3.75  ,91.541  ,0
6161  ,0.5       ,2.75  ,91.163  ,0
6162  ,0.5       ,3.0592  ,91.143  ,0
6163  ,0.5       ,3.25  ,91.163  ,0
6164  ,0.5       ,3.25  ,91.541  ,0
6165  ,0.5       ,2.5  ,91.163  ,0
6166  ,0.5       ,2.75  ,91.541  ,0
6167  ,0.5       ,1.75  ,91.163  ,0
6168  ,0.5       ,2.0099  ,91.088  ,0
6169  ,0.5       ,2.25  ,91.163  ,0
6170  ,0.5       ,2.25  ,91.541  ,0
6171  ,0.5       ,1.25  ,91.163  ,0
6172  ,0.5       ,1.5  ,91.163  ,0
6173  ,0.5       ,1.75  ,91.541  ,0
6174  ,0.5       ,1  ,91.163  ,0
6175  ,0.5       ,1.25  ,91.541  ,0
6176  ,0.5       ,0.5  ,91.163  ,0
6177  ,0.5       ,0.75  ,91.163  ,0
6178  ,0.5       ,0.75  ,91.541  ,0
6179  ,0.5       ,0.25  ,91.541  ,0
6180  ,0.5       ,0.25  ,90.912  ,0
6181  ,0.5       ,0.25  ,91.289  ,0
6182  ,0.5       ,1.5497E-06  ,91.289  ,0
6183  ,0.5       ,0.25  ,90.66  ,0
6184  ,0.5       ,0.25  ,90.409  ,0
6185  ,0.5       ,1.5497E-06  ,90.786  ,0
6186  ,0.5       ,0.25  ,90.157  ,0
6187  ,0.5       ,0.25  ,89.906  ,0
6188  ,0.5       ,1.5497E-06  ,90.283  ,0
6189  ,0.5       ,0.25  ,89.654  ,0
6190  ,0.5       ,0.25  ,89.403  ,0
6191  ,0.5       ,1.5497E-06  ,89.78  ,0
6192  ,0.5       ,0.25  ,89.151  ,0
6193  ,0.5       ,0.25  ,88.9  ,0
6194  ,0.5       ,1.5497E-06  ,89.277  ,0
6195  ,0.5       ,0.25  ,88.648  ,0
6196  ,0.5       ,0.25  ,88.397  ,0
6197  ,0.5       ,1.5497E-06  ,88.774  ,0
6198  ,0.5       ,0.25  ,88.145  ,0
6199  ,0.5       ,0.25  ,87.894  ,0
6200  ,0.5       ,1.5497E-06  ,88.271  ,0
6201  ,0.5       ,0.25  ,87.642  ,0
6202  ,0.5       ,0.25  ,87.391  ,0
6203  ,0.5       ,1.5497E-06  ,87.768  ,0
6204  ,0.5       ,0.25  ,87.139  ,0
6205  ,0.5       ,0.25  ,86.888  ,0
6206  ,0.5       ,1.5497E-06  ,87.265  ,0
6207  ,0.5       ,0.25  ,86.636  ,0
6208  ,0.5       ,0.25  ,86.385  ,0
6209  ,0.5       ,1.5497E-06  ,86.762  ,0
6210  ,0.5       ,0.25  ,86.133  ,0
6211  ,0.5       ,0.25  ,85.882  ,0
6212  ,0.5       ,1.5497E-06  ,86.259  ,0
6213  ,0.5       ,0.25  ,85.63  ,0
6214  ,0.5       ,0.25  ,85.379  ,0
6215  ,0.5       ,1.5497E-06  ,85.756  ,0
6216  ,0.5       ,0.25  ,85.127  ,0
6217  ,0.5       ,0.25  ,84.876  ,0
6218  ,0.5       ,1.5497E-06  ,85.253  ,0
6219  ,0.5       ,0.25  ,84.624  ,0
6220  ,0.5       ,0.25  ,84.373  ,0
6221  ,0.5       ,1.5497E-06  ,84.75  ,0
6222  ,0.5       ,0.25  ,84.121  ,0
6223  ,0.5       ,0.25  ,83.87  ,0
6224  ,0.5       ,1.5497E-06  ,84.247  ,0
6225  ,0.5       ,0.25  ,83.618  ,0
6226  ,0.5       ,0.25  ,83.367  ,0
6227  ,0.5       ,1.5497E-06  ,83.744  ,0
6228  ,0.5       ,0.25  ,83.115  ,0
6229  ,0.5       ,0.25  ,82.864  ,0
6230  ,0.5       ,1.5497E-06  ,83.241  ,0
6231  ,0.5       ,0.25  ,82.612  ,0
6232  ,0.5       ,0.25  ,82.361  ,0
6233  ,0.5       ,1.5497E-06  ,82.738  ,0
6234  ,0.5       ,0.25  ,82.109  ,0
6235  ,0.5       ,0.25  ,81.858  ,0
6236  ,0.5       ,1.5497E-06  ,82.235  ,0
6237  ,0.5       ,0.25  ,81.606  ,0
6238  ,0.5       ,0.25  ,81.355  ,0
6239  ,0.5       ,1.5497E-06  ,81.731  ,0
6240  ,0.5       ,0.25  ,81.103  ,0
6241  ,0.5       ,0.25  ,80.852  ,0
6242  ,0.5       ,1.5497E-06  ,81.228  ,0
6243  ,0.5       ,0.25  ,80.6  ,0
6244  ,0.5       ,0.25  ,80.349  ,0
6245  ,0.5       ,1.5497E-06  ,80.725  ,0
6246  ,0.5       ,0.25  ,80.097  ,0
6247  ,0.5       ,0.25  ,79.846  ,0
6248  ,0.5       ,1.5497E-06  ,80.222  ,0
6249  ,0.5       ,0.25  ,79.594  ,0
6250  ,0.5       ,0.25  ,79.343  ,0
6251  ,0.5       ,1.5497E-06  ,79.719  ,0
6252  ,0.5       ,0.25  ,79.091  ,0
6253  ,0.5       ,0.25  ,78.84  ,0
6254  ,0.5       ,1.5497E-06  ,79.216  ,0
6255  ,0.5       ,0.25  ,78.588  ,0
6256  ,0.5       ,0.25  ,78.337  ,0
6257  ,0.5       ,1.5497E-06  ,78.713  ,0
6258  ,0.5       ,0.25  ,78.085  ,0
6259  ,0.5       ,0.25  ,77.834  ,0
6260  ,0.5       ,1.5497E-06  ,78.21  ,0
6261  ,0.5       ,0.25  ,77.582  ,0
6262  ,0.5       ,0.25  ,77.331  ,0
6263  ,0.5       ,1.5497E-06  ,77.707  ,0
6264  ,0.5       ,0.25  ,77.079  ,0
6265  ,0.5       ,0.25  ,76.828  ,0
6266  ,0.5       ,1.5497E-06  ,77.204  ,0
6267  ,0.5       ,0.25  ,76.576  ,0
6268  ,0.5       ,0.25  ,76.325  ,0
6269  ,0.5       ,1.5497E-06  ,76.701  ,0
6270  ,0.5       ,0.25  ,76.073  ,0
6271  ,0.6       ,0.25  ,75.822  ,0
6272  ,0.5       ,1.5497E-06  ,76.198  ,0
6273  ,0.6       ,0.25  ,75.57  ,0
6274  ,0.6       ,0.25  ,75.319  ,0
6275  ,0.6       ,1.5497E-06  ,75.695  ,0
6276  ,0.6       ,0.25  ,75.067  ,0
6277  ,0.6       ,0.25  ,74.816  ,0
6278  ,0.6       ,1.5497E-06  ,75.192  ,0
6279  ,0.6       ,0.25  ,74.564  ,0
6280  ,0.6       ,0.25  ,74.313  ,0
6281  ,0.6       ,1.5497E-06  ,74.689  ,0
6282  ,0.6       ,0.25  ,74.061  ,0
6283  ,0.6       ,0.25  ,73.81  ,0
6284  ,0.6       ,1.5497E-06  ,74.186  ,0
6285  ,0.6       ,0.25  ,73.558  ,0
6286  ,0.6       ,0.25  ,73.307  ,0
6287  ,0.6       ,1.5497E-06  ,73.683  ,0
6288  ,0.6       ,0.25  ,73.055  ,0
6289  ,0.6       ,0.25  ,72.804  ,0
6290  ,0.6       ,1.5497E-06  ,73.18  ,0
6291  ,0.6       ,0.25  ,72.552  ,0
6292  ,0.6       ,0.25  ,72.301  ,0
6293  ,0.6       ,1.5497E-06  ,72.677  ,0
6294  ,0.6       ,0.25  ,72.049  ,0
6295  ,0.6       ,0.25  ,71.798  ,0
6296  ,0.6       ,1.5497E-06  ,72.174  ,0
6297  ,0.6       ,0.25  ,71.546  ,0
6298  ,0.6       ,0.24566  ,71.295  ,0
6299  ,0.6       ,1.5497E-06  ,71.671  ,0
6300  ,0.6       ,0.24566  ,71.043  ,0
6301  ,0.6       ,0.256  ,70.792  ,0
6302  ,0.6       ,1.5497E-06  ,71.168  ,0
6303  ,0.6       ,0.256  ,70.54  ,0
6304  ,0.6       ,0.2503  ,70.289  ,0
6305  ,0.6       ,1.5497E-06  ,70.665  ,0
6306  ,0.6       ,0.2503  ,70.037  ,0
6307  ,0.6       ,0.24492  ,69.786  ,0
6308  ,0.6       ,1.5497E-06  ,70.162  ,0
6309  ,0.7       ,0.24492  ,69.534  ,0
6310  ,0.7       ,0.25702  ,69.283  ,0
6311  ,0.7       ,1.5497E-06  ,69.659  ,0
6312  ,0.7       ,0.25702  ,69.031  ,0
6313  ,0.7       ,0.25196  ,68.78  ,0
6314  ,0.7       ,1.5497E-06  ,69.156  ,0
6315  ,0.7       ,0.24724  ,68.277  ,0
6316  ,0.7       ,0.25196  ,68.528  ,0
6317  ,0.7       ,1.5497E-06  ,68.653  ,0
6318  ,0.7       ,0.26153  ,67.774  ,0
6319  ,0.7       ,0.24724  ,68.025  ,0
6320  ,0.7       ,1.5497E-06  ,68.15  ,0
6321  ,0.7       ,0.25715  ,67.271  ,0
6322  ,0.7       ,0.26153  ,67.522  ,0
6323  ,0.7       ,1.5497E-06  ,67.646  ,0
6324  ,0.7       ,0.25312  ,66.768  ,0
6325  ,0.7       ,0.25715  ,67.019  ,0
6326  ,0.7       ,1.5497E-06  ,67.143  ,0
6327  ,0.7       ,0.24944  ,66.265  ,0
6328  ,0.7       ,0.25312  ,66.516  ,0
6329  ,0.7       ,1.5497E-06  ,66.64  ,0
6330  ,0.7       ,0.24609  ,65.762  ,0
6331  ,0.7       ,0.24944  ,66.013  ,0
6332  ,0.7       ,1.5497E-06  ,66.137  ,0
6333  ,0.7       ,0.24307  ,65.259  ,0
6334  ,0.7       ,0.24609  ,65.51  ,0
6335  ,0.7       ,1.5497E-06  ,65.634  ,0
6336  ,0.7       ,0.26043  ,64.756  ,0
6337  ,0.7       ,0.24307  ,65.007  ,0
6338  ,0.7       ,1.5497E-06  ,65.131  ,0
6339  ,0.7       ,0.25788  ,64.253  ,0
6340  ,0.7       ,0.26043  ,64.504  ,0
6341  ,0.7       ,1.5497E-06  ,64.628  ,0
6342  ,0.7       ,0.2557  ,63.75  ,0
6343  ,0.7       ,0.25788  ,64.001  ,0
6344  ,0.7       ,1.5497E-06  ,64.125  ,0
6345  ,0.8       ,0.25388  ,63.247  ,0
6346  ,0.7       ,0.2557  ,63.498  ,0
6347  ,0.7       ,1.5497E-06  ,63.622  ,0
6348  ,0.8       ,0.2524  ,62.744  ,0
6349  ,0.8       ,0.25388  ,62.995  ,0
6350  ,0.8       ,1.5497E-06  ,63.119  ,0
6351  ,0.8       ,0.25129  ,62.241  ,0
6352  ,0.8       ,0.2524  ,62.492  ,0
6353  ,0.8       ,1.5497E-06  ,62.616  ,0
6354  ,0.8       ,0.25053  ,61.738  ,0
6355  ,0.8       ,0.25129  ,61.989  ,0
6356  ,0.8       ,1.5497E-06  ,62.113  ,0
6357  ,0.8       ,0.25012  ,61.235  ,0
6358  ,0.8       ,0.25053  ,61.486  ,0
6359  ,0.8       ,1.5497E-06  ,61.61  ,0
6360  ,0.8       ,0.25  ,60.732  ,0
6361  ,0.8       ,0.25012  ,60.983  ,0
6362  ,0.8       ,1.5497E-06  ,61.107  ,0
6363  ,0.8       ,0.25  ,60.229  ,0
6364  ,0.8       ,0.25  ,60.48  ,0
6365  ,0.8       ,1.5497E-06  ,60.604  ,0
6366  ,0.8       ,0.25  ,59.726  ,0
6367  ,0.8       ,0.25  ,59.977  ,0
6368  ,0.8       ,1.5497E-06  ,60.101  ,0
6369  ,0.8       ,0.25  ,59.223  ,0
6370  ,0.8       ,0.25  ,59.474  ,0
6371  ,0.8       ,1.5497E-06  ,59.598  ,0
6372  ,0.9       ,0.25  ,58.72  ,0
6373  ,0.9       ,0.25  ,58.971  ,0
6374  ,0.9       ,1.5497E-06  ,59.095  ,0
6375  ,0.9       ,0.25  ,58.217  ,0
6376  ,0.9       ,0.25  ,58.468  ,0
6377  ,0.9       ,1.5497E-06  ,58.592  ,0
6378  ,0.9       ,0.25  ,57.714  ,0
6379  ,0.9       ,0.25  ,57.965  ,0
6380  ,0.9       ,1.5497E-06  ,58.089  ,0
6381  ,0.9       ,0.25  ,57.211  ,0
6382  ,0.9       ,0.25  ,57.462  ,0
6383  ,0.9       ,1.5497E-06  ,57.586  ,0
6384  ,0.9       ,0.25  ,56.708  ,0
6385  ,0.9       ,0.25  ,56.959  ,0
6386  ,0.9       ,1.5497E-06  ,57.083  ,0
6387  ,0.9       ,0.25  ,56.205  ,0
6388  ,0.9       ,0.25  ,56.456  ,0
6389  ,0.9       ,1.5497E-06  ,56.58  ,0
6390  ,0.9       ,0.25  ,55.702  ,0
6391  ,0.9       ,0.25  ,55.953  ,0
6392  ,0.9       ,1.5497E-06  ,56.077  ,0
6393  ,1.0       ,0.25  ,55.199  ,0
6394  ,1.0       ,0.25  ,55.45  ,0
6395  ,1.0       ,1.5497E-06  ,55.574  ,0
6396  ,1.0       ,0.25  ,54.696  ,0
6397  ,1.0       ,0.25  ,54.947  ,0
6398  ,1.0       ,1.5497E-06  ,55.071  ,0
6399  ,1.0       ,0.25  ,54.193  ,0
6400  ,1.0       ,0.25  ,54.444  ,0
6401  ,1.0       ,1.5497E-06  ,54.568  ,0
6402  ,1.1       ,0.25  ,53.69  ,0
6403  ,1.1       ,0.25  ,53.941  ,0
6404  ,1.0       ,1.5497E-06  ,54.065  ,0
6405  ,1.1       ,0.25  ,53.187  ,0
6406  ,1.1       ,0.25  ,53.438  ,0
6407  ,1.1       ,1.5497E-06  ,53.562  ,0
6408  ,1.2       ,0.25  ,52.684  ,0
6409  ,1.2       ,0.25  ,52.935  ,0
6410  ,1.1       ,1.5497E-06  ,53.058  ,0
6411  ,1.2       ,0.25  ,52.181  ,0
6412  ,1.2       ,0.25  ,52.432  ,0
6413  ,1.2       ,1.5497E-06  ,52.555  ,0
6414  ,1.3       ,0.25  ,51.678  ,0
6415  ,1.3       ,0.25  ,51.929  ,0
6416  ,1.3       ,1.5497E-06  ,52.052  ,0
6417  ,1.4       ,0.25  ,51.175  ,0
6418  ,1.3       ,0.25  ,51.426  ,0
6419  ,1.3       ,1.5497E-06  ,51.549  ,0
6420  ,1.4       ,0.25  ,50.672  ,0
6421  ,1.4       ,0.25  ,50.923  ,0
6422  ,1.4       ,1.5497E-06  ,51.046  ,0
6423  ,1.5       ,0.25  ,50.169  ,0
6424  ,1.4       ,0.25  ,50.42  ,0
6425  ,1.4       ,1.5497E-06  ,50.543  ,0
6426  ,1.5       ,0.25  ,49.666  ,0
6427  ,1.5       ,0.25  ,49.917  ,0
6428  ,1.5       ,1.5497E-06  ,50.04  ,0
6429  ,1.5       ,0.25  ,49.163  ,0
6430  ,1.5       ,0.25  ,49.414  ,0
6431  ,1.5       ,1.5497E-06  ,49.537  ,0
6432  ,1.5       ,0.25  ,48.66  ,0
6433  ,1.5       ,0.25  ,48.911  ,0
6434  ,1.5       ,1.5497E-06  ,49.034  ,0
6435  ,1.4       ,0.25  ,48.157  ,0
6436  ,1.4       ,0.25  ,48.408  ,0
6437  ,1.4       ,1.5497E-06  ,48.531  ,0
6438  ,1.3       ,0.25  ,47.905  ,0
6439  ,1.3       ,0.17188  ,47.74  ,0
6440  ,1.4       ,1.5497E-06  ,48.028  ,0
6441  ,1.2       ,0.10938  ,47.001  ,0
6442  ,1.3       ,0.17188  ,47.488  ,0
6443  ,1.2       ,0.2073  ,47.003  ,0
6444  ,1.2       ,0.26488  ,47.244  ,0
6445  ,1.3       ,1.5497E-06  ,47.525  ,0
6446  ,1.1       ,0.10938  ,46.764  ,0
6447  ,1.2       ,1.5497E-06  ,47.036  ,0
6448  ,1.1       ,0.10938  ,46.594  ,0
6449  ,1.1       ,0.14062  ,46.426  ,0
6450  ,1.1       ,1.5497E-06  ,46.63  ,0
6451  ,1.0       ,0.078125  ,46.185  ,0
6452  ,1.1       ,0.14062  ,46.305  ,0
6453  ,1.1       ,1.5497E-06  ,46.339  ,0
6454  ,1.0       ,0.078125  ,46.098  ,0
6455  ,1.0       ,0.078125  ,46.013  ,0
6456  ,1.0       ,1.5497E-06  ,46.132  ,0
6457  ,1.0       ,0.046877  ,45.89  ,0
6458  ,1.0       ,0.078125  ,45.951  ,0
6459  ,1.0       ,1.5497E-06  ,45.983  ,0
6460  ,1.0       ,0.046877  ,45.846  ,0
6461  ,1.0       ,1.5497E-06  ,45.877  ,0
6462  ,1.0       ,1.5497E-06  ,45.802  ,0
6463  ,1.0       ,0.078128  ,45.814  ,0
6464  ,1.0       ,0.031249  ,45.802  ,0
6465  ,1.0       ,0.031249  ,45.77  ,0
6466  ,1.0       ,0.10938  ,45.814  ,0
6467  ,1.0       ,0.14062  ,45.814  ,0
6468  ,1.0       ,0.093748  ,45.77  ,0
6469  ,1.0       ,0.17187  ,45.814  ,0
6470  ,1.0       ,0.20312  ,45.814  ,0
6471  ,1.0       ,0.15625  ,45.77  ,0
6472  ,1.0       ,0.23437  ,45.814  ,0
6473  ,1.0       ,0.26562  ,45.814  ,0
6474  ,1.0       ,0.21875  ,45.77  ,0
6475  ,1.0       ,0.29688  ,45.814  ,0
6476  ,1.0       ,0.32813  ,45.814  ,0
6477  ,1.0       ,0.28125  ,45.77  ,0
6478  ,1.0       ,0.35937  ,45.814  ,0
6479  ,1.0       ,0.39062  ,45.814  ,0
6480  ,1.0       ,0.34375  ,45.77  ,0
6481  ,1.0       ,0.42188  ,45.814  ,0
6482  ,1.0       ,0.45312  ,45.814  ,0
6483  ,1.0       ,0.40625  ,45.77  ,0
6484  ,1.0       ,0.48437  ,45.814  ,0
6485  ,1.0       ,0.51563  ,45.814  ,0
6486  ,1.0       ,0.46875  ,45.77  ,0
6487  ,1.0       ,0.54687  ,45.814  ,0
6488  ,1.0       ,0.57813  ,45.814  ,0
6489  ,1.0       ,0.53125  ,45.77  ,0
6490  ,1.0       ,0.60938  ,45.814  ,0
6491  ,1.0       ,0.64062  ,45.814  ,0
6492  ,1.0       ,0.59375  ,45.77  ,0
6493  ,1.0       ,0.67187  ,45.814  ,0
6494  ,1.0       ,0.70312  ,45.814  ,0
6495  ,1.0       ,0.65625  ,45.77  ,0
6496  ,1.0       ,0.73438  ,45.814  ,0
6497  ,1.0       ,0.76562  ,45.814  ,0
6498  ,1.0       ,0.71875  ,45.77  ,0
6499  ,1.1       ,0.79687  ,45.814  ,0
6500  ,1.1       ,0.82813  ,45.814  ,0
6501  ,1.0       ,0.78125  ,45.77  ,0
6502  ,1.1       ,0.85937  ,45.814  ,0
6503  ,1.1       ,0.89063  ,45.814  ,0
6504  ,1.1       ,0.84375  ,45.77  ,0
6505  ,1.1       ,0.92188  ,45.814  ,0
6506  ,1.1       ,0.95312  ,45.814  ,0
6507  ,1.1       ,0.90625  ,45.77  ,0
6508  ,1.1       ,0.98437  ,45.814  ,0
6509  ,1.1       ,1.0156  ,45.814  ,0
6510  ,1.1       ,0.96875  ,45.77  ,0
6511  ,1.1       ,1.0469  ,45.814  ,0
6512  ,1.1       ,1.0781  ,45.814  ,0
6513  ,1.1       ,1.0313  ,45.77  ,0
6514  ,1.1       ,1.1094  ,45.814  ,0
6515  ,1.1       ,1.1406  ,45.814  ,0
6516  ,1.1       ,1.0938  ,45.77  ,0
6517  ,1.1       ,1.1719  ,45.814  ,0
6518  ,1.1       ,1.2031  ,45.814  ,0
6519  ,1.1       ,1.1562  ,45.77  ,0
6520  ,1.1       ,1.2344  ,45.814  ,0
6521  ,1.1       ,1.2656  ,45.814  ,0
6522  ,1.1       ,1.2187  ,45.77  ,0
6523  ,1.1       ,1.2969  ,45.814  ,0
6524  ,1.1       ,1.3281  ,45.814  ,0
6525  ,1.1       ,1.2813  ,45.77  ,0
6526  ,1.1       ,1.3594  ,45.814  ,0
6527  ,1.1       ,1.3906  ,45.814  ,0
6528  ,1.1       ,1.3438  ,45.77  ,0
6529  ,1.1       ,1.4219  ,45.814  ,0
6530  ,1.1       ,1.4531  ,45.814  ,0
6531  ,1.1       ,1.4063  ,45.77  ,0
6532  ,1.1       ,1.4844  ,45.814  ,0
6533  ,1.1       ,1.5156  ,45.814  ,0
6534  ,1.1       ,1.4687  ,45.77  ,0
6535  ,1.1       ,1.5469  ,45.814  ,0
6536  ,1.1       ,1.5781  ,45.814  ,0
6537  ,1.1       ,1.5312  ,45.77  ,0
6538  ,1.1       ,1.6094  ,45.814  ,0
6539  ,1.1       ,1.6406  ,45.814  ,0
6540  ,1.1       ,1.5938  ,45.77  ,0
6541  ,1.1       ,1.6719  ,45.814  ,0
6542  ,1.2       ,1.7031  ,45.814  ,0
6543  ,1.1       ,1.6563  ,45.77  ,0
6544  ,1.2       ,1.7344  ,45.814  ,0
6545  ,1.2       ,1.7656  ,45.814  ,0
6546  ,1.2       ,1.7187  ,45.77  ,0
6547  ,1.2       ,1.7969  ,45.814  ,0
6548  ,1.2       ,1.8281  ,45.814  ,0
6549  ,1.2       ,1.7812  ,45.77  ,0
6550  ,1.2       ,1.8594  ,45.814  ,0
6551  ,1.2       ,1.8906  ,45.814  ,0
6552  ,1.2       ,1.8437  ,45.77  ,0
6553  ,1.2       ,1.9219  ,45.814  ,0
6554  ,1.2       ,1.9531  ,45.814  ,0
6555  ,1.2       ,1.9063  ,45.77  ,0
6556  ,1.2       ,1.9844  ,45.814  ,0
6557  ,1.2       ,2.0156  ,45.814  ,0
6558  ,1.2       ,1.9688  ,45.77  ,0
6559  ,1.2       ,2.0469  ,45.814  ,0
6560  ,1.2       ,2.0781  ,45.814  ,0
6561  ,1.2       ,2.0312  ,45.77  ,0
6562  ,1.3       ,2.1094  ,45.814  ,0
6563  ,1.3       ,2.1406  ,45.814  ,0
6564  ,1.2       ,2.0937  ,45.77  ,0
6565  ,1.3       ,2.1719  ,45.814  ,0
6566  ,1.3       ,2.2031  ,45.814  ,0
6567  ,1.3       ,2.1563  ,45.77  ,0
6568  ,1.3       ,2.2344  ,45.814  ,0
6569  ,1.3       ,2.2656  ,45.814  ,0
6570  ,1.3       ,2.2188  ,45.77  ,0
6571  ,1.3       ,2.2969  ,45.814  ,0
6572  ,1.3       ,2.3281  ,45.814  ,0
6573  ,1.3       ,2.2813  ,45.77  ,0
6574  ,1.3       ,2.3594  ,45.814  ,0
6575  ,1.4       ,2.3906  ,45.814  ,0
6576  ,1.3       ,2.3437  ,45.77  ,0
6577  ,1.4       ,2.4219  ,45.814  ,0
6578  ,1.4       ,2.4531  ,45.814  ,0
6579  ,1.4       ,2.4062  ,45.77  ,0
6580  ,1.4       ,2.4844  ,45.814  ,0
6581  ,1.4       ,2.5156  ,45.814  ,0
6582  ,1.4       ,2.4688  ,45.77  ,0
6583  ,1.4       ,2.5469  ,45.814  ,0
6584  ,1.5       ,2.5781  ,45.814  ,0
6585  ,1.4       ,2.5313  ,45.77  ,0
6586  ,1.5       ,2.6094  ,45.814  ,0
6587  ,1.5       ,2.6406  ,45.814  ,0
6588  ,1.5       ,2.5938  ,45.77  ,0
6589  ,1.5       ,2.6719  ,45.814  ,0
6590  ,1.5       ,2.7031  ,45.814  ,0
6591  ,1.5       ,2.6562  ,45.77  ,0
6592  ,1.6       ,2.7344  ,45.814  ,0
6593  ,1.6       ,2.7656  ,45.814  ,0
6594  ,1.5       ,2.7187  ,45.77  ,0
6595  ,1.6       ,2.7969  ,45.814  ,0
6596  ,1.6       ,2.8281  ,45.814  ,0
6597  ,1.6       ,2.7813  ,45.77  ,0
6598  ,1.6       ,2.8594  ,45.814  ,0
6599  ,1.7       ,2.8906  ,45.814  ,0
6600  ,1.6       ,2.8438  ,45.77  ,0
6601  ,1.7       ,2.9219  ,45.814  ,0
6602  ,1.7       ,2.9531  ,45.814  ,0
6603  ,1.7       ,2.9062  ,45.77  ,0
6604  ,1.8       ,2.9844  ,45.814  ,0
6605  ,1.8       ,3.0156  ,45.814  ,0
6606  ,1.8       ,2.9687  ,45.77  ,0
6607  ,1.8       ,3.0469  ,45.814  ,0
6608  ,1.9       ,3.0781  ,45.814  ,0
6609  ,1.8       ,3.0313  ,45.77  ,0
6610  ,1.9       ,3.1094  ,45.814  ,0
6611  ,2.0       ,3.1406  ,45.814  ,0
6612  ,1.9       ,3.0938  ,45.77  ,0
6613  ,2.0       ,3.1719  ,45.814  ,0
6614  ,2.0       ,3.2031  ,45.814  ,0
6615  ,2.0       ,3.1563  ,45.77  ,0
6616  ,2.1       ,3.2344  ,45.814  ,0
6617  ,2.1       ,3.2656  ,45.814  ,0
6618  ,2.1       ,3.2187  ,45.77  ,0
6619  ,2.2       ,3.2969  ,45.814  ,0
6620  ,2.2       ,3.3281  ,45.814  ,0
6621  ,2.2       ,3.2812  ,45.77  ,0
6622  ,2.3       ,3.3594  ,45.814  ,0
6623  ,2.4       ,3.3906  ,45.814  ,0
6624  ,2.3       ,3.3438  ,45.77  ,0
6625  ,2.4       ,3.4219  ,45.814  ,0
6626  ,2.5       ,3.4531  ,45.814  ,0
6627  ,2.4       ,3.4063  ,45.77  ,0
6628  ,2.6       ,3.4844  ,45.814  ,0
6629  ,2.7       ,3.5156  ,45.814  ,0
6630  ,2.5       ,3.4687  ,45.77  ,0
6631  ,2.7       ,3.5469  ,45.814  ,0
6632  ,2.8       ,3.5781  ,45.814  ,0
6633  ,2.7       ,3.5312  ,45.77  ,0
6634  ,2.9       ,3.6094  ,45.814  ,0
6635  ,3.0       ,3.6406  ,45.814  ,0
6636  ,2.9       ,3.5938  ,45.77  ,0
6637  ,3.1       ,3.6719  ,45.814  ,0
6638  ,3.3       ,3.7191  ,45.8  ,0
6639  ,3.1       ,3.6563  ,45.77  ,0
6640  ,3.4       ,3.7502  ,45.8  ,0
6641  ,3.3       ,3.7188  ,45.77  ,0
